 vasp.5.4.4.18Apr17-6-g9f103f2a35 (build Apr 10 2018 17:34:00) complex

 executed on             LinuxIFC date 2018.10.04  08:43:10

 INCAR:
 POTCAR:    PAW_PBE Al 04Jan2001
 POTCAR:    PAW_PBE As 22Sep2009
 POTCAR:    PAW_PBE Al 04Jan2001

 POTCAR:    PAW_PBE As 22Sep2009

  PAW_PBE Al 04Jan2001                  :
  PAW_PBE As 22Sep2009                  :

 POSCAR: AlAs
  positions in direct lattice
  velocities in cartesian coordinates
 exchange correlation table for  LEXCH =        8
   RHO(1)=    0.500       N(1)  =     2000
   RHO(2)=  100.500       N(2)  =     4000

 ion  position               nearest neighbor table
   1  0.000  0.000  0.000-   2 2.48   2 2.48   2 2.48   2 2.48
   2  0.250  0.250  0.250-   1 2.48   1 2.48   1 2.48   1 2.48

  LATTYP: Found a face centered cubic cell.
 ALAT       =     5.7327961367

  Lattice vectors:

 A1 = (   0.0000000000,   2.8663980683,   2.8663980683)
 A2 = (   2.8663980683,   0.0000000000,   2.8663980683)
 A3 = (   2.8663980683,   2.8663980683,   0.0000000000)

Analysis of symmetry for initial positions (statically):
 Subroutine PRICEL returns:
 Original cell was already a primitive cell.

 Routine SETGRP: Setting up the symmetry group for a
 face centered cubic supercell.

 Subroutine GETGRP returns: Found 24 space group operations
 (whereof 24 operations were pure point group operations)
 out of a pool of 48 trial point group operations.

The static configuration has the point symmetry T_d .

Analysis of symmetry for dynamics (positions and initial velocities):
 Subroutine PRICEL returns:
 Original cell was already a primitive cell.

 Routine SETGRP: Setting up the symmetry group for a
 face centered cubic supercell.

 Subroutine GETGRP returns: Found 24 space group operations
 (whereof 24 operations were pure point group operations)
 out of a pool of 48 trial point group operations.

The dynamic configuration has the point symmetry T_d .

 Subroutine INISYM returns: Found 24 space group operations
 (whereof 24 operations are pure point group operations),
 and found     1 'primitive' translations

 KPOINTS: AlAs

Automatic generation of k-mesh.
 generate k-points for:    9    9    9
Space group operators:
 irot       det(A)        alpha          n_x          n_y          n_z        tau_x        tau_y        tau_z
    1     1.000000     0.000000     1.000000     0.000000     0.000000     0.000000     0.000000     0.000000
    2     1.000000   120.000000    -0.577350    -0.577350    -0.577350     0.000000     0.000000     0.000000
    3     1.000000   120.000000     0.577350     0.577350     0.577350     0.000000     0.000000     0.000000
    4    -1.000000    90.000000     0.000000     0.000000    -1.000000     0.000000     0.000000     0.000000
    5    -1.000000   180.000000    -0.000000     0.707107     0.707107     0.000000     0.000000     0.000000
    6    -1.000000    90.000000     0.000000     1.000000     0.000000     0.000000     0.000000     0.000000
    7     1.000000   180.000000     0.000000    -0.000000    -1.000000     0.000000     0.000000     0.000000
    8     1.000000   120.000000    -0.577350     0.577350     0.577350     0.000000     0.000000     0.000000
    9     1.000000   120.000000    -0.577350     0.577350    -0.577350     0.000000     0.000000     0.000000
   10    -1.000000    90.000000    -0.000000    -0.000000     1.000000     0.000000     0.000000     0.000000
   11    -1.000000    90.000000    -1.000000    -0.000000    -0.000000     0.000000     0.000000     0.000000
   12    -1.000000   180.000000     0.707107     0.000000     0.707107     0.000000     0.000000     0.000000
   13     1.000000   120.000000     0.577350    -0.577350     0.577350     0.000000     0.000000     0.000000
   14     1.000000   120.000000    -0.577350    -0.577350     0.577350     0.000000     0.000000     0.000000
   15     1.000000   180.000000     1.000000     0.000000     0.000000     0.000000     0.000000     0.000000
   16    -1.000000    90.000000     0.000000    -1.000000     0.000000     0.000000     0.000000     0.000000
   17    -1.000000   180.000000     0.707107     0.707107     0.000000     0.000000     0.000000     0.000000
   18    -1.000000    90.000000     1.000000     0.000000     0.000000     0.000000     0.000000     0.000000
   19     1.000000   120.000000     0.577350    -0.577350    -0.577350     0.000000     0.000000     0.000000
   20     1.000000   180.000000     0.000000    -1.000000    -0.000000     0.000000     0.000000     0.000000
   21     1.000000   120.000000     0.577350     0.577350    -0.577350     0.000000     0.000000     0.000000
   22    -1.000000   180.000000     0.000000    -0.707107     0.707107     0.000000     0.000000     0.000000
   23    -1.000000   180.000000     0.707107    -0.707107    -0.000000     0.000000     0.000000     0.000000
   24    -1.000000   180.000000     0.707107     0.000000    -0.707107     0.000000     0.000000     0.000000

 Subroutine IBZKPT returns following result:

 Found     35 irreducible k-points:

 Following reciprocal coordinates:
            Coordinates               Weight
  0.000000  0.000000  0.000000      1.000000
  0.111111  0.000000 -0.000000      8.000000
  0.222222  0.000000 -0.000000      8.000000
  0.333333  0.000000  0.000000      8.000000
  0.444444  0.000000 -0.000000      8.000000
  0.111111  0.111111  0.000000      6.000000
  0.222222  0.111111  0.000000     24.000000
  0.333333  0.111111 -0.000000     24.000000
  0.444444  0.111111  0.000000     24.000000
 -0.444444  0.111111  0.000000     24.000000
 -0.333333  0.111111  0.000000     24.000000
 -0.222222  0.111111  0.000000     24.000000
 -0.111111  0.111111  0.000000     12.000000
  0.222222  0.222222  0.000000      6.000000
  0.333333  0.222222  0.000000     24.000000
  0.444444  0.222222 -0.000000     24.000000
 -0.444444  0.222222  0.000000     24.000000
 -0.333333  0.222222 -0.000000     24.000000
 -0.222222  0.222222  0.000000     12.000000
  0.333333  0.333333  0.000000      6.000000
  0.444444  0.333333  0.000000     24.000000
 -0.444444  0.333333  0.000000     24.000000
 -0.333333  0.333333 -0.000000     12.000000
  0.444444  0.444444  0.000000      6.000000
 -0.444444  0.444444  0.000000     12.000000
  0.333333  0.222222  0.111111     24.000000
  0.444444  0.222222  0.111111     48.000000
 -0.444444  0.222222  0.111111     48.000000
  0.444444  0.333333  0.111111     24.000000
 -0.444444  0.333333  0.111111     48.000000
 -0.333333  0.333333  0.111111     48.000000
 -0.222222  0.333333  0.111111     24.000000
 -0.444444  0.444444  0.111111     24.000000
 -0.333333  0.444444  0.111111     24.000000
 -0.333333  0.444444  0.222222     24.000000

 Following cartesian coordinates:
            Coordinates               Weight
  0.000000  0.000000  0.000000      1.000000
 -0.019382  0.019382  0.019382      8.000000
 -0.038763  0.038763  0.038763      8.000000
 -0.058145  0.058145  0.058145      8.000000
 -0.077527  0.077527  0.077527      8.000000
  0.000000  0.000000  0.038763      6.000000
 -0.019382  0.019382  0.058145     24.000000
 -0.038763  0.038763  0.077527     24.000000
 -0.058145  0.058145  0.096908     24.000000
  0.096908 -0.096908 -0.058145     24.000000
  0.077527 -0.077527 -0.038763     24.000000
  0.058145 -0.058145 -0.019382     24.000000
  0.038763 -0.038763 -0.000000     12.000000
  0.000000  0.000000  0.077527      6.000000
 -0.019382  0.019382  0.096908     24.000000
 -0.038763  0.038763  0.116290     24.000000
  0.116290 -0.116290 -0.038763     24.000000
  0.096908 -0.096908 -0.019382     24.000000
  0.077527 -0.077527 -0.000000     12.000000
 -0.000000  0.000000  0.116290      6.000000
 -0.019382  0.019382  0.135672     24.000000
  0.135672 -0.135672 -0.019382     24.000000
  0.116290 -0.116290 -0.000000     12.000000
  0.000000  0.000000  0.155053      6.000000
  0.155053 -0.155053 -0.000000     12.000000
  0.000000  0.038763  0.077527     24.000000
 -0.019382  0.058145  0.096908     48.000000
  0.135672 -0.096908 -0.058145     48.000000
 -0.000000  0.038763  0.116290     24.000000
  0.155053 -0.116290 -0.038763     48.000000
  0.135672 -0.096908 -0.019382     48.000000
  0.116290 -0.077527 -0.000000     24.000000
  0.174435 -0.135672 -0.019382     24.000000
  0.155053 -0.116290  0.000000     24.000000
  0.174435 -0.096908 -0.019382     24.000000

 SYSTEM =  AlAs
 POSCAR =  AlAs

 Startparameter for this run:
   NWRITE =      1    write-flag & timer
   PREC   = accura    normal or accurate (medium, high low for compatibility)
   ISTART =      0    job   : 0-new  1-cont  2-samecut
   ICHARG =      2    charge: 1-file 2-atom 10-const
   ISPIN  =      1    spin polarized calculation?
   LNONCOLLINEAR =      F non collinear calculations
   LSORBIT =      F    spin-orbit coupling
   INIWAV =      1    electr: 0-lowe 1-rand  2-diag
   LASPH  =      T    aspherical Exc in radial PAW
   METAGGA=      F    non-selfconsistent MetaGGA calc.

 Electronic Relaxation 1
   ENCUT  =  460.0 eV  33.81 Ry    5.81 a.u.   7.09  7.09  7.09*2*pi/ulx,y,z
   ENINI  =  460.0     initial cutoff
   ENAUG  =  462.8 eV  augmentation charge cutoff
   NELM   =    100;   NELMIN=  6; NELMDL= -8     # of ELM steps
   EDIFF  = 0.1E-06   stopping-criterion for ELM
   LREAL  =      F    real-space projection
   NLSPLINE    = F    spline interpolate recip. space projectors
   LCOMPAT=      F    compatible to vasp.4.4
   GGA_COMPAT  = T    GGA compatible to vasp.4.4-vasp.4.6
   LMAXPAW     = -100 max onsite density
   LMAXMIX     =    6 max onsite mixed and CHGCAR
   VOSKOWN=      0    Vosko Wilk Nusair interpolation
   ROPT   =    0.00000   0.00000
 Ionic relaxation
   EDIFFG = -.1E-02   stopping-criterion for IOM
   NSW    =    100    number of steps for IOM
   NBLOCK =      1;   KBLOCK =    100    inner block; outer block
   IBRION =      2    ionic relax: 0-MD 1-quasi-New 2-CG
   NFREE  =      1    steps in history (QN), initial steepest desc. (CG)
   ISIF   =      3    stress and relaxation
   IWAVPR =     11    prediction:  0-non 1-charg 2-wave 3-comb
   ISYM   =      2    0-nonsym 1-usesym 2-fastsym
   LCORR  =      T    Harris-Foulkes like correction to forces

   POTIM  = 0.5000    time-step for ionic-motion
   TEIN   =    0.0    initial temperature
   TEBEG  =    0.0;   TEEND  =   0.0 temperature during run
   SMASS  =  -3.00    Nose mass-parameter (am)
   estimated Nose-frequenzy (Omega)   =  0.10E-29 period in steps =****** mass=  -0.376E-27a.u.
   SCALEE = 1.0000    scale energy and forces
   NPACO  =    256;   APACO  = 16.0  distance and # of slots for P.C.
   PSTRESS=    0.0 pullay stress

  Mass of Ions in am
   POMASS =  26.98 74.92
  Ionic Valenz
   ZVAL   =   3.00  5.00
  Atomic Wigner-Seitz radii
  virtual crystal weights
   VCA    =   1.00  1.00
   NELECT =       8.0000    total number of electrons
   NUPDOWN=      -1.0000    fix difference up-down

 DOS related values:
   EMIN   =  10.00;   EMAX   =-10.00  energy-range for DOS
   EFERMI =   0.00
   ISMEAR =     0;   SIGMA  =   0.01  broadening in eV -4-tet -1-fermi 0-gaus

 Electronic relaxation 2 (details)
   IALGO  =     38    algorithm
   LDIAG  =      T    sub-space diagonalisation (order eigenvalues)
[...]
   IDIPOL =      0    1-x, 2-y, 3-z, 4-all directions
   EPSILON=  1.0000000 bulk dielectric constant

 Exchange correlation treatment:
   GGA     =    --    GGA type
   VOSKOWN=      0    Vosko Wilk Nusair interpolation
   LHFCALC =     F    Hartree Fock is set to
   LHFONE  =     F    Hartree Fock one center treatment
   AEXX    =    0.0000 exact exchange contribution

 Linear response parameters
   LEPSILON=     F    determine dielectric tensor
   LRPA    =     F    only Hartree local field effects (RPA)
   LNABLA  =     F    use nabla operator in PAW spheres
   LVEL    =     F    velocity operator in full k-point grid
   LINTERFAST=   F  fast interpolation
   KINTER  =     0    interpolate to denser k-point grid
   CSHIFT  =0.1000    complex shift for real part using Kramers Kronig
   OMEGAMAX=  -1.0    maximum frequency
   DEG_THRESHOLD= 0.2000000E-02 threshold for treating states as degnerate
   RTIME   =   -0.100 relaxation time in fs
  (WPLASMAI=    0.000 imaginary part of plasma frequency in eV, 0.658/RTIME)
   DFIELD  = 0.0000000 0.0000000 0.0000000 field for delta impulse in time

 Orbital magnetization related:
   ORBITALMAG=     F  switch on orbital magnetization
   LCHIMAG   =     F  perturbation theory with respect to B field
   DQ        =  0.001000  dq finite difference perturbation B field
   LLRAUG    =     F  two centre corrections for induced B field

 conjugate gradient relaxation of ions
 charge density and potential will be updated during run
 non-spin polarized calculation
 Variant of blocked Davidson
 Davidson routine will perform the subspace rotation
 perform sub-space diagonalisation
    after iterative eigenvector-optimisation
 modified Broyden-mixing scheme, WC =      100.0
 initial mixing is a Kerker type mixing with AMIX =  0.2000 and BMIX =      0.0010
 Hartree-type preconditioning will be used
 using additional bands            4
 reciprocal scheme for non local part
 use partial core corrections
 calculate Harris-corrections to forces
   (improved forces if not selfconsistent)
 use gradient corrections
 use of overlap-Matrix (Vanderbilt PP)
 Gauss-broadening in eV      SIGMA  =   0.01

  energy-cutoff  :      460.00
  volume of cell :       47.10
      direct lattice vectors                 reciprocal lattice vectors
     0.000000000  2.866398068  2.866398068    -0.174434949  0.174434949  0.174434949
     2.866398068  0.000000000  2.866398068     0.174434949 -0.174434949  0.174434949
     2.866398068  2.866398068  0.000000000     0.174434949  0.174434949 -0.174434949

  length of vectors
     4.053699023  4.053699023  4.053699023     0.302130194  0.302130194  0.302130194

 k-points in units of 2pi/SCALE and weight: AlAs
   0.00000000  0.00000000  0.00000000       0.001
  -0.01938166  0.01938166  0.01938166       0.011
  -0.03876332  0.03876332  0.03876332       0.011
  -0.05814498  0.05814498  0.05814498       0.011
  -0.07752664  0.07752664  0.07752664       0.011
   0.00000000 -0.00000000  0.03876332       0.008
  -0.01938166  0.01938166  0.05814498       0.033
  -0.03876332  0.03876332  0.07752664       0.033
  -0.05814498  0.05814498  0.09690830       0.033
   0.09690830 -0.09690830 -0.05814498       0.033
   0.07752664 -0.07752664 -0.03876332       0.033
   0.05814498 -0.05814498 -0.01938166       0.033
   0.03876332 -0.03876332  0.00000000       0.016
   0.00000000 -0.00000000  0.07752664       0.008
  -0.01938166  0.01938166  0.09690830       0.033
  -0.03876332  0.03876332  0.11628997       0.033
   0.11628997 -0.11628997 -0.03876332       0.033
   0.09690830 -0.09690830 -0.01938166       0.033
   0.07752664 -0.07752664  0.00000000       0.016
  -0.00000000  0.00000000  0.11628997       0.008
  -0.01938166  0.01938166  0.13567163       0.033
   0.13567163 -0.13567163 -0.01938166       0.033
   0.11628997 -0.11628997 -0.00000000       0.016
   0.00000000 -0.00000000  0.15505329       0.008
   0.15505329 -0.15505329  0.00000000       0.016
   0.00000000  0.03876332  0.07752664       0.033
  -0.01938166  0.05814498  0.09690830       0.066
   0.13567163 -0.09690830 -0.05814498       0.066
  -0.00000000  0.03876332  0.11628997       0.033
   0.15505329 -0.11628997 -0.03876332       0.066
   0.13567163 -0.09690830 -0.01938166       0.066
   0.11628997 -0.07752664 -0.00000000       0.033
   0.17443495 -0.13567163 -0.01938166       0.033
   0.15505329 -0.11628997  0.00000000       0.033
   0.17443495 -0.09690830 -0.01938166       0.033

 k-points in reciprocal lattice and weights: AlAs
   0.00000000  0.00000000  0.00000000       0.001
   0.11111111  0.00000000 -0.00000000       0.011
   0.22222222  0.00000000 -0.00000000       0.011
   0.33333333  0.00000000  0.00000000       0.011
   0.44444444  0.00000000 -0.00000000       0.011
   0.11111111  0.11111111  0.00000000       0.008
   0.22222222  0.11111111  0.00000000       0.033
   0.33333333  0.11111111 -0.00000000       0.033
   0.44444444  0.11111111  0.00000000       0.033
  -0.44444444  0.11111111  0.00000000       0.033
  -0.33333333  0.11111111  0.00000000       0.033
  -0.22222222  0.11111111  0.00000000       0.033
  -0.11111111  0.11111111  0.00000000       0.016
   0.22222222  0.22222222  0.00000000       0.008
   0.33333333  0.22222222  0.00000000       0.033
   0.44444444  0.22222222 -0.00000000       0.033
  -0.44444444  0.22222222  0.00000000       0.033
  -0.33333333  0.22222222 -0.00000000       0.033
  -0.22222222  0.22222222  0.00000000       0.016
   0.33333333  0.33333333  0.00000000       0.008
   0.44444444  0.33333333  0.00000000       0.033
  -0.44444444  0.33333333  0.00000000       0.033
  -0.33333333  0.33333333 -0.00000000       0.016
   0.44444444  0.44444444  0.00000000       0.008
  -0.44444444  0.44444444  0.00000000       0.016
   0.33333333  0.22222222  0.11111111       0.033
   0.44444444  0.22222222  0.11111111       0.066
  -0.44444444  0.22222222  0.11111111       0.066
   0.44444444  0.33333333  0.11111111       0.033
  -0.44444444  0.33333333  0.11111111       0.066
  -0.33333333  0.33333333  0.11111111       0.066
  -0.22222222  0.33333333  0.11111111       0.033
  -0.44444444  0.44444444  0.11111111       0.033
  -0.33333333  0.44444444  0.11111111       0.033
  -0.33333333  0.44444444  0.22222222       0.033

 position of ions in fractional coordinates (direct lattice)
   0.00000000  0.00000000  0.00000000
   0.25000000  0.25000000  0.25000000

 position of ions in cartesian coordinates  (Angst):
   0.00000000  0.00000000  0.00000000
   1.43319903  1.43319903  1.43319903

 k-point  1 :   0.0000 0.0000 0.0000  plane waves:    1067
 k-point  2 :   0.1111 0.0000-0.0000  plane waves:    1040
 k-point  3 :   0.2222 0.0000-0.0000  plane waves:    1053
 k-point  4 :   0.3333 0.0000 0.0000  plane waves:    1059
 k-point  5 :   0.4444 0.0000-0.0000  plane waves:    1056
 k-point  6 :   0.1111 0.1111 0.0000  plane waves:    1046
 k-point  7 :   0.2222 0.1111 0.0000  plane waves:    1041
 k-point  8 :   0.3333 0.1111-0.0000  plane waves:    1054
 k-point  9 :   0.4444 0.1111 0.0000  plane waves:    1054
 k-point 10 :  -0.4444 0.1111 0.0000  plane waves:    1060
 k-point 11 :  -0.3333 0.1111 0.0000  plane waves:    1055
 k-point 12 :  -0.2222 0.1111 0.0000  plane waves:    1050
 k-point 13 :  -0.1111 0.1111 0.0000  plane waves:    1037
 k-point 14 :   0.2222 0.2222 0.0000  plane waves:    1054
 k-point 15 :   0.3333 0.2222 0.0000  plane waves:    1053
 k-point 16 :   0.4444 0.2222-0.0000  plane waves:    1050
 k-point 17 :  -0.4444 0.2222 0.0000  plane waves:    1069
 k-point 18 :  -0.3333 0.2222-0.0000  plane waves:    1058
 k-point 19 :  -0.2222 0.2222 0.0000  plane waves:    1061
 k-point 20 :   0.3333 0.3333 0.0000  plane waves:    1046
 k-point 21 :   0.4444 0.3333 0.0000  plane waves:    1054
 k-point 22 :  -0.4444 0.3333 0.0000  plane waves:    1060
 k-point 23 :  -0.3333 0.3333-0.0000  plane waves:    1063
 k-point 24 :   0.4444 0.4444 0.0000  plane waves:    1054
 k-point 25 :  -0.4444 0.4444 0.0000  plane waves:    1051
 k-point 26 :   0.3333 0.2222 0.1111  plane waves:    1050
 k-point 27 :   0.4444 0.2222 0.1111  plane waves:    1055
 k-point 28 :  -0.4444 0.2222 0.1111  plane waves:    1057
 k-point 29 :   0.4444 0.3333 0.1111  plane waves:    1056
 k-point 30 :  -0.4444 0.3333 0.1111  plane waves:    1059
 k-point 31 :  -0.3333 0.3333 0.1111  plane waves:    1067
 k-point 32 :  -0.2222 0.3333 0.1111  plane waves:    1054
 k-point 33 :  -0.4444 0.4444 0.1111  plane waves:    1055
 k-point 34 :  -0.3333 0.4444 0.1111  plane waves:    1055
 k-point 35 :  -0.3333 0.4444 0.2222  plane waves:    1054

 maximum and minimum number of plane-waves per node :       218      205

 maximum number of plane-waves:      1069
 maximum index in each direction:
   IXMAX=    7   IYMAX=    7   IZMAX=    7
   IXMIN=   -7   IYMIN=   -7   IZMIN=   -7

 parallel 3D FFT for wavefunctions:
    minimum data exchange during FFTs selected (reduces bandwidth)
 parallel 3D FFT for charge:
    minimum data exchange during FFTs selected (reduces bandwidth)

 Broyden mixing: mesh for mixing (old mesh)
   NGX = 15   NGY = 15   NGZ = 15
  (NGX  = 56   NGY  = 56   NGZ  = 56)
  gives a total of   3375 points

 initial charge density was supplied:
 charge density of overlapping atoms calculated
 number of electron       8.0000000 magnetization
 keeping initial charge density in first step

 Maximum index for augmentation-charges        16593 (set IRDMAX)

 First call to EWALD:  gamma=   0.491
 Maximum number of real-space cells 3x 3x 3
 Maximum number of reciprocal cells 3x 3x 3

--------------------------------------- Iteration      1(   1)  ---------------------------------------

 eigenvalue-minimisations  :   560
 total energy-change (2. order) : 0.1358284E+02  (-0.2924748E+03)
 number of electron       8.0000000 magnetization
 augmentation part        8.0000000 magnetization

 Free energy of the ion-electron system (eV)
  alpha Z        PSCENC =         7.86808274
  Ewald energy   TEWEN  =      -225.99325692
  -Hartree energ DENC   =       -18.07235870
  -exchange      EXHF   =         0.00000000
  -V(xc)+E(xc)   XCENC  =       -38.33875935
  PAW double counting   =       213.26457426     -159.87313877
  entropy T*S    EENTRO =        -0.00015980
  eigenvalues    EBANDS =        11.00356502
  atomic energy  EATOM  =       223.72428952
  Solvation  Ediel_sol  =         0.00000000
  free energy    TOTEN  =        13.58283802 eV

  energy without entropy =       13.58299782  energy(sigma->0) =       13.58291792

[...]

 eigenvalue-minimisations  :   792
 total energy-change (2. order) :-0.2264686E+02  (-0.2165850E+02)
 number of electron       8.0000000 magnetization
 augmentation part        8.0000000 magnetization

[...]

 Broyden mixing:
  rms(total) = 0.31160E+00    rms(broyden)= 0.31160E+00
  rms(prec ) = 0.87473E+00
  weight for this iteration     100.00

[...]

 eigenvalues of (default mixing * dielectric matrix)
  average eigenvalue GAMMA=   3.3535
  3.3535

[...]

 eigenvalue-minimisations  :   608
 total energy-change (2. order) :-0.5706354E-06  (-0.1691704E-04)
 number of electron       8.0000000 magnetization
 augmentation part       -0.8203206 magnetization

[...]

 Broyden mixing:
  rms(total) = 0.15491E-03    rms(broyden)= 0.15488E-03
  rms(prec ) = 0.19154E-03
  weight for this iteration     100.00

 eigenvalues of (default mixing * dielectric matrix)
  average eigenvalue GAMMA=   2.5316
  5.3303  4.7420  3.8795  2.3936  1.0298  1.1283  1.1283  0.6210

[...]

--------------------------------------- Iteration      1(  17)  ---------------------------------------

 eigenvalue-minimisations  :   536
 total energy-change (2. order) : 0.5446452E-08  (-0.1224392E-07)
 number of electron       8.0000000 magnetization
 augmentation part       -0.8201965 magnetization

 Free energy of the ion-electron system (eV)
  alpha Z        PSCENC =         7.86808274
  Ewald energy   TEWEN  =      -225.99325692
  -Hartree energ DENC   =       -22.52985335
  -exchange      EXHF   =         0.00000000
  -V(xc)+E(xc)   XCENC  =       -37.65205529
  PAW double counting   =       401.80176134     -348.58793126
  entropy T*S    EENTRO =        -0.00000000
  eigenvalues    EBANDS =        -8.02000217
  atomic energy  EATOM  =       223.72428952
  Solvation  Ediel_sol  =         0.00000000
  free energy    TOTEN  =        -9.38896540 eV

  energy without entropy =       -9.38896540  energy(sigma->0) =       -9.38896540

 average (electrostatic) potential at core
  the test charge radii are     1.0406  1.0621
  (the norm of the test charge is              1.0000)
       1 -76.5569       2 -49.9032

 E-fermi :   3.7350     XC(G=0):  -8.8950     alpha+bet : -9.8943

 k-point     1 :       0.0000    0.0000    0.0000
  band No.  band energies     occupation
      1      -8.0847      2.00000
      2       3.5722      2.00000
      3       3.5722      2.00000
      4       3.5722      2.00000
      5       5.3351      0.00000
      6       7.7953      0.00000
      7       7.7953      0.00000
      8       7.7953      0.00000

[...]

 k-point    35 :      -0.3333    0.4444    0.2222
  band No.  band energies     occupation
      1      -6.2561      2.00000
      2      -1.4009      2.00000
      3       0.4874      2.00000
      4       1.1223      2.00000
      5       7.6702      0.00000
      6       8.6362      0.00000
      7       8.9505      0.00000
      8      10.6181      0.00000

 soft charge-density along one line, spin component           1
         0         1         2         3         4         5         6         7         8         9
 total charge-density along one line

------------------------ aborting loop because EDIFF is reached ----------------------------------------

 total charge

# of ion       s       p       d       tot
    1        0.404   0.355   0.000   0.759
    2        1.194   1.656   0.023   2.874
tot          1.598   2.012   0.023   3.633

  FORCE on cell =-STRESS in cart. coord.  units (eV):
  Direction    XX          YY          ZZ          XY          YZ          ZX
  Alpha Z     7.86808     7.86808     7.86808
  Ewald     -75.33112   -75.33112   -75.33112     0.00000    -0.00000     0.00000
  Hartree     7.51012     7.51012     7.51012     0.00000     0.00000     0.00000
  E(xc)     -27.55773   -27.55773   -27.55773     0.00000     0.00000     0.00000
  Local     -28.65187   -28.65187   -28.65187     0.00000     0.00000     0.00000
  n-local    57.78977    58.67191    54.69560     1.52265    -1.01571     0.47820
  augment    -2.33823    -2.33823    -2.33823    -0.00000    -0.00000    -0.00000
  Kinetic    63.43853    62.22209    58.68064     3.72171    -1.51354     1.27478
  Fock        0.00000     0.00000     0.00000     0.00000     0.00000     0.00000
  Total      -0.00123    -0.00123    -0.00123     0.00000     0.00000     0.00000
  in kB      -0.04191    -0.04191    -0.04191     0.00000     0.00000     0.00000

 VOLUME and BASIS-vectors are now :
  energy-cutoff  :      460.00
  volume of cell :       47.10
      direct lattice vectors                 reciprocal lattice vectors
     0.000000000  2.866398068  2.866398068    -0.174434949  0.174434949  0.174434949
     2.866398068  0.000000000  2.866398068     0.174434949 -0.174434949  0.174434949
     2.866398068  2.866398068  0.000000000     0.174434949  0.174434949 -0.174434949

  length of vectors
     4.053699023  4.053699023  4.053699023     0.302130194  0.302130194  0.302130194

 FORCES acting on ions
    electron-ion (+dipol)            ewald-force                    non-local-force                 convergence-correction
   -.310E-06 -.310E-06 -.318E-06   0.137E-14 -.299E-14 0.880E-15   0.919E-16 0.919E-16 0.723E-16   0.310E-09 0.310E-09 0.310E-09
   0.896E-07 0.896E-07 0.892E-07   -.133E-14 0.278E-14 -.944E-15   0.122E-16 0.122E-16 0.161E-16   -.172E-09 -.172E-09 -.172E-09
   -.220E-06 -.220E-06 -.229E-06   0.403E-16 -.210E-15 -.640E-16   0.104E-15 0.104E-15 0.884E-16   0.139E-09 0.139E-09 0.139E-09

 POSITION                                       TOTAL-FORCE (eV/Angst)
      0.00000      0.00000      0.00000         0.000000     -0.000000      0.000000
      1.43320      1.43320      1.43320        -0.000000      0.000000     -0.000000
    total drift:                               -0.000000     -0.000000     -0.000000

  FREE ENERGIE OF THE ION-ELECTRON SYSTEM (eV)
  free  energy   TOTEN  =        -9.38896540 eV

  energy  without entropy=       -9.38896540  energy(sigma->0) =       -9.38896540

 reached required accuracy - stopping structural energy minimisation

 total charge

# of ion       s       p       d       tot
    1        0.404   0.355   0.000   0.759
    2        1.194   1.656   0.023   2.874
tot          1.598   2.012   0.023   3.633