 vasp.5.4.4.18Apr17-6-g9f103f2a35 (build Apr 10 2018 17:34:00) complex

 executed on             LinuxIFC date 2018.10.04  08:24:09

 INCAR:
 POTCAR:    PAW_PBE In 08Apr2002
 POTCAR:    PAW_PBE N 08Apr2002
 POTCAR:    PAW_PBE In 08Apr2002

 POTCAR:    PAW_PBE N 08Apr2002

 WARNING: PSMAXN for non-local potential too small
          PSMAXN should be >   14.4904333269122       NTYP=           1
  PAW_PBE In 08Apr2002                  :
  PAW_PBE N 08Apr2002                   :

 POSCAR: InN
  positions in direct lattice
  velocities in cartesian coordinates
 exchange correlation table for  LEXCH =        8
   RHO(1)=    0.500       N(1)  =     2000
   RHO(2)=  100.500       N(2)  =     4000

 ion  position               nearest neighbor table
   1  0.000  0.000  0.000-   2 2.21   2 2.21   2 2.21   2 2.21
   2  0.250  0.250  0.250-   1 2.21   1 2.21   1 2.21   1 2.21

  LATTYP: Found a face centered cubic cell.
 ALAT       =     5.1028390968

  Lattice vectors:

 A1 = (   0.0000000000,   2.5514195484,   2.5514195484)
 A2 = (   2.5514195484,   0.0000000000,   2.5514195484)
 A3 = (   2.5514195484,   2.5514195484,   0.0000000000)

Analysis of symmetry for initial positions (statically):
 Subroutine PRICEL returns:
 Original cell was already a primitive cell.

 Routine SETGRP: Setting up the symmetry group for a
 face centered cubic supercell.

 Subroutine GETGRP returns: Found 24 space group operations
 (whereof 24 operations were pure point group operations)
 out of a pool of 48 trial point group operations.

The static configuration has the point symmetry T_d .

Analysis of symmetry for dynamics (positions and initial velocities):
 Subroutine PRICEL returns:
 Original cell was already a primitive cell.

 Routine SETGRP: Setting up the symmetry group for a
 face centered cubic supercell.

 Subroutine GETGRP returns: Found 24 space group operations
 (whereof 24 operations were pure point group operations)
 out of a pool of 48 trial point group operations.

The dynamic configuration has the point symmetry T_d .

 Subroutine INISYM returns: Found 24 space group operations
 (whereof 24 operations are pure point group operations),
 and found     1 'primitive' translations

 KPOINTS: InN

Automatic generation of k-mesh.
 generate k-points for:   10   10   10
Space group operators:
 irot       det(A)        alpha          n_x          n_y          n_z        tau_x        tau_y        tau_z
    1     1.000000     0.000001     1.000000     0.000000     0.000000     0.000000     0.000000     0.000000
    2     1.000000   120.000000    -0.577350    -0.577350    -0.577350     0.000000     0.000000     0.000000
    3     1.000000   120.000000     0.577350     0.577350     0.577350     0.000000     0.000000     0.000000
    4    -1.000000    90.000000     0.000000     0.000000    -1.000000     0.000000     0.000000     0.000000
    5    -1.000000   180.000000     0.000000     0.707107     0.707107     0.000000     0.000000     0.000000
    6    -1.000000    90.000000    -0.000000     1.000000     0.000000     0.000000     0.000000     0.000000
    7     1.000000   180.000000     0.000000     0.000000     1.000000     0.000000     0.000000     0.000000
    8     1.000000   120.000000    -0.577350     0.577350     0.577350     0.000000     0.000000     0.000000
    9     1.000000   120.000000    -0.577350     0.577350    -0.577350     0.000000     0.000000     0.000000
   10    -1.000000    90.000000     0.000000     0.000000     1.000000     0.000000     0.000000     0.000000
   11    -1.000000    90.000000    -1.000000     0.000000     0.000000     0.000000     0.000000     0.000000
   12    -1.000000   180.000000     0.707107     0.000000     0.707107     0.000000     0.000000     0.000000
   13     1.000000   120.000000     0.577350    -0.577350     0.577350     0.000000     0.000000     0.000000
   14     1.000000   120.000000    -0.577350    -0.577350     0.577350     0.000000     0.000000     0.000000
   15     1.000000   180.000000     1.000000     0.000000     0.000000     0.000000     0.000000     0.000000
   16    -1.000000    90.000000     0.000000    -1.000000    -0.000000     0.000000     0.000000     0.000000
   17    -1.000000   180.000000     0.707107     0.707107    -0.000000     0.000000     0.000000     0.000000
   18    -1.000000    90.000000     1.000000     0.000000     0.000000     0.000000     0.000000     0.000000
   19     1.000000   120.000000     0.577350    -0.577350    -0.577350     0.000000     0.000000     0.000000
   20     1.000000   180.000000    -0.000000     1.000000     0.000000     0.000000     0.000000     0.000000
   21     1.000000   120.000000     0.577350     0.577350    -0.577350     0.000000     0.000000     0.000000
   22    -1.000000   180.000000     0.000000    -0.707107     0.707107     0.000000     0.000000     0.000000
   23    -1.000000   180.000000     0.707107    -0.707107     0.000000     0.000000     0.000000     0.000000
   24    -1.000000   180.000000     0.707107     0.000000    -0.707107     0.000000     0.000000     0.000000

 Subroutine IBZKPT returns following result:

 Found     47 irreducible k-points:

 Following reciprocal coordinates:
            Coordinates               Weight
  0.000000  0.000000  0.000000      1.000000
  0.100000  0.000000 -0.000000      8.000000
  0.200000  0.000000 -0.000000      8.000000
  0.300000  0.000000  0.000000      8.000000
  0.400000  0.000000 -0.000000      8.000000
  0.500000  0.000000 -0.000000      4.000000
  0.100000  0.100000 -0.000000      6.000000
  0.200000  0.100000  0.000000     24.000000
  0.300000  0.100000 -0.000000     24.000000
  0.400000  0.100000 -0.000000     24.000000
  0.500000  0.100000 -0.000000     24.000000
 -0.400000  0.100000  0.000000     24.000000
 -0.300000  0.100000 -0.000000     24.000000
 -0.200000  0.100000 -0.000000     24.000000
 -0.100000  0.100000  0.000000     12.000000
  0.200000  0.200000 -0.000000      6.000000
  0.300000  0.200000  0.000000     24.000000
  0.400000  0.200000  0.000000     24.000000
  0.500000  0.200000  0.000000     24.000000
 -0.400000  0.200000 -0.000000     24.000000
 -0.300000  0.200000  0.000000     24.000000
 -0.200000  0.200000  0.000000     12.000000
  0.300000  0.300000 -0.000000      6.000000
  0.400000  0.300000  0.000000     24.000000
  0.500000  0.300000  0.000000     24.000000
 -0.400000  0.300000 -0.000000     24.000000
 -0.300000  0.300000 -0.000000     12.000000
  0.400000  0.400000 -0.000000      6.000000
  0.500000  0.400000 -0.000000     24.000000
 -0.400000  0.400000  0.000000     12.000000
  0.500000  0.500000 -0.000000      3.000000
  0.300000  0.200000  0.100000     24.000000
  0.400000  0.200000  0.100000     48.000000
  0.500000  0.200000  0.100000     48.000000
 -0.400000  0.200000  0.100000     24.000000
  0.400000  0.300000  0.100000     24.000000
  0.500000  0.300000  0.100000     48.000000
 -0.400000  0.300000  0.100000     48.000000
 -0.300000  0.300000  0.100000     48.000000
 -0.200000  0.300000  0.100000     24.000000
  0.500000  0.400000  0.100000     24.000000
 -0.400000  0.400000  0.100000     48.000000
 -0.300000  0.400000  0.100000     24.000000
 -0.400000  0.500000  0.100000     12.000000
 -0.400000  0.400000  0.200000     24.000000
 -0.300000  0.400000  0.200000     24.000000
 -0.300000  0.500000  0.200000     12.000000

 Following cartesian coordinates:
            Coordinates               Weight
  0.000000  0.000000  0.000000      1.000000
 -0.019597  0.019597  0.019597      8.000000
 -0.039194  0.039194  0.039194      8.000000
 -0.058791  0.058791  0.058791      8.000000
 -0.078388  0.078388  0.078388      8.000000
 -0.097985  0.097985  0.097985      4.000000
  0.000000  0.000000  0.039194      6.000000
 -0.019597  0.019597  0.058791     24.000000
 -0.039194  0.039194  0.078388     24.000000
 -0.058791  0.058791  0.097985     24.000000
 -0.078388  0.078388  0.117582     24.000000
  0.097985 -0.097985 -0.058791     24.000000
  0.078388 -0.078388 -0.039194     24.000000
  0.058791 -0.058791 -0.019597     24.000000
  0.039194 -0.039194  0.000000     12.000000
  0.000000  0.000000  0.078388      6.000000
 -0.019597  0.019597  0.097985     24.000000
 -0.039194  0.039194  0.117582     24.000000
 -0.058791  0.058791  0.137179     24.000000
  0.117582 -0.117582 -0.039194     24.000000
  0.097985 -0.097985 -0.019597     24.000000
  0.078388 -0.078388  0.000000     12.000000
  0.000000  0.000000  0.117582      6.000000
 -0.019597  0.019597  0.137179     24.000000
 -0.039194  0.039194  0.156775     24.000000
  0.137179 -0.137179 -0.019597     24.000000
  0.117582 -0.117582 -0.000000     12.000000
  0.000000  0.000000  0.156775      6.000000
 -0.019597  0.019597  0.176372     24.000000
  0.156775 -0.156775  0.000000     12.000000
  0.000000  0.000000  0.195969      3.000000
  0.000000  0.039194  0.078388     24.000000
 -0.019597  0.058791  0.097985     48.000000
 -0.039194  0.078388  0.117582     48.000000
  0.137179 -0.097985 -0.058791     24.000000
 -0.000000  0.039194  0.117582     24.000000
 -0.019597  0.058791  0.137179     48.000000
  0.156775 -0.117582 -0.039194     48.000000
  0.137179 -0.097985 -0.019597     48.000000
  0.117582 -0.078388 -0.000000     24.000000
  0.000000  0.039194  0.156775     24.000000
  0.176372 -0.137179 -0.019597     48.000000
  0.156775 -0.117582  0.000000     24.000000
  0.195969 -0.156775  0.000000     12.000000
  0.195969 -0.117582 -0.039194     24.000000
  0.176372 -0.097985 -0.019597     24.000000
  0.195969 -0.117582  0.000000     12.000000

 SYSTEM =  InN
 POSCAR =  InN

 Startparameter for this run:
   NWRITE =      1    write-flag & timer
   PREC   = accura    normal or accurate (medium, high low for compatibility)
   ISTART =      0    job   : 0-new  1-cont  2-samecut
   ICHARG =      2    charge: 1-file 2-atom 10-const
   ISPIN  =      1    spin polarized calculation?
   LNONCOLLINEAR =      F non collinear calculations
   LSORBIT =      F    spin-orbit coupling
   INIWAV =      1    electr: 0-lowe 1-rand  2-diag
   LASPH  =      T    aspherical Exc in radial PAW
   METAGGA=      F    non-selfconsistent MetaGGA calc.

 Electronic Relaxation 1
   ENCUT  =  800.0 eV  58.80 Ry    7.67 a.u.   8.32  8.32  8.32*2*pi/ulx,y,z
   ENINI  =  800.0     initial cutoff
   ENAUG  =  627.1 eV  augmentation charge cutoff
   NELM   =    100;   NELMIN=  6; NELMDL= -8     # of ELM steps
   EDIFF  = 0.1E-06   stopping-criterion for ELM
   LREAL  =      F    real-space projection
   NLSPLINE    = F    spline interpolate recip. space projectors
   LCOMPAT=      F    compatible to vasp.4.4
   GGA_COMPAT  = T    GGA compatible to vasp.4.4-vasp.4.6
   LMAXPAW     = -100 max onsite density
   LMAXMIX     =    6 max onsite mixed and CHGCAR
   VOSKOWN=      0    Vosko Wilk Nusair interpolation
   ROPT   =    0.00000   0.00000
 Ionic relaxation
   EDIFFG = -.1E-02   stopping-criterion for IOM
   NSW    =    100    number of steps for IOM
   NBLOCK =      1;   KBLOCK =    100    inner block; outer block
   IBRION =      2    ionic relax: 0-MD 1-quasi-New 2-CG
   NFREE  =      1    steps in history (QN), initial steepest desc. (CG)
   ISIF   =      3    stress and relaxation
[...]
 using additional bands            4
 reciprocal scheme for non local part
 use partial core corrections
 calculate Harris-corrections to forces
   (improved forces if not selfconsistent)
 use gradient corrections
 use of overlap-Matrix (Vanderbilt PP)
 Gauss-broadening in eV      SIGMA  =   0.01

  energy-cutoff  :      800.00
  volume of cell :       33.22
      direct lattice vectors                 reciprocal lattice vectors
     0.000000000  2.551419548  2.551419548    -0.195969338  0.195969338  0.195969338
     2.551419548  0.000000000  2.551419548     0.195969338 -0.195969338  0.195969338
     2.551419548  2.551419548  0.000000000     0.195969338  0.195969338 -0.195969338

  length of vectors
     3.608252129  3.608252129  3.608252129     0.339428850  0.339428850  0.339428850

 k-points in units of 2pi/SCALE and weight: InN
   0.00000000  0.00000000  0.00000000       0.001
  -0.01959693  0.01959693  0.01959693       0.008
  -0.03919387  0.03919387  0.03919387       0.008
  -0.05879080  0.05879080  0.05879080       0.008
  -0.07838774  0.07838774  0.07838774       0.008
  -0.09798467  0.09798467  0.09798467       0.004
  -0.00000000  0.00000000  0.03919387       0.006
  -0.01959693  0.01959693  0.05879080       0.024
  -0.03919387  0.03919387  0.07838774       0.024
  -0.05879080  0.05879080  0.09798467       0.024
  -0.07838774  0.07838774  0.11758160       0.024
   0.09798467 -0.09798467 -0.05879080       0.024
   0.07838774 -0.07838774 -0.03919387       0.024
   0.05879080 -0.05879080 -0.01959693       0.024
   0.03919387 -0.03919387 -0.00000000       0.012
  -0.00000000  0.00000000  0.07838774       0.006
  -0.01959693  0.01959693  0.09798467       0.024
  -0.03919387  0.03919387  0.11758160       0.024
  -0.05879080  0.05879080  0.13717854       0.024
   0.11758160 -0.11758160 -0.03919387       0.024
   0.09798467 -0.09798467 -0.01959693       0.024
   0.07838774 -0.07838774 -0.00000000       0.012
  -0.00000000  0.00000000  0.11758160       0.006
  -0.01959693  0.01959693  0.13717854       0.024
  -0.03919387  0.03919387  0.15677547       0.024
   0.13717854 -0.13717854 -0.01959693       0.024
   0.11758160 -0.11758160 -0.00000000       0.012
  -0.00000000  0.00000000  0.15677547       0.006
  -0.01959693  0.01959693  0.17637240       0.024
   0.15677547 -0.15677547 -0.00000000       0.012
  -0.00000000  0.00000000  0.19596934       0.003
   0.00000000  0.03919387  0.07838774       0.024
  -0.01959693  0.05879080  0.09798467       0.048
  -0.03919387  0.07838774  0.11758160       0.048
   0.13717854 -0.09798467 -0.05879080       0.024
  -0.00000000  0.03919387  0.11758160       0.024
  -0.01959693  0.05879080  0.13717854       0.048
   0.15677547 -0.11758160 -0.03919387       0.048
   0.13717854 -0.09798467 -0.01959693       0.048
   0.11758160 -0.07838774 -0.00000000       0.024
  -0.00000000  0.03919387  0.15677547       0.024
   0.17637240 -0.13717854 -0.01959693       0.048
   0.15677547 -0.11758160  0.00000000       0.024
   0.19596934 -0.15677547 -0.00000000       0.012
   0.19596934 -0.11758160 -0.03919387       0.024
   0.17637240 -0.09798467 -0.01959693       0.024
   0.19596934 -0.11758160 -0.00000000       0.012

 k-points in reciprocal lattice and weights: InN
   0.00000000  0.00000000  0.00000000       0.001
   0.10000000  0.00000000 -0.00000000       0.008
   0.20000000  0.00000000 -0.00000000       0.008
   0.30000000  0.00000000  0.00000000       0.008
   0.40000000  0.00000000 -0.00000000       0.008
   0.50000000  0.00000000 -0.00000000       0.004
   0.10000000  0.10000000 -0.00000000       0.006
   0.20000000  0.10000000  0.00000000       0.024
   0.30000000  0.10000000 -0.00000000       0.024
   0.40000000  0.10000000 -0.00000000       0.024
   0.50000000  0.10000000 -0.00000000       0.024
  -0.40000000  0.10000000  0.00000000       0.024
  -0.30000000  0.10000000 -0.00000000       0.024
  -0.20000000  0.10000000 -0.00000000       0.024
  -0.10000000  0.10000000  0.00000000       0.012
   0.20000000  0.20000000 -0.00000000       0.006
   0.30000000  0.20000000  0.00000000       0.024
   0.40000000  0.20000000  0.00000000       0.024
   0.50000000  0.20000000  0.00000000       0.024
  -0.40000000  0.20000000 -0.00000000       0.024
  -0.30000000  0.20000000  0.00000000       0.024
  -0.20000000  0.20000000  0.00000000       0.012
   0.30000000  0.30000000 -0.00000000       0.006
   0.40000000  0.30000000  0.00000000       0.024
   0.50000000  0.30000000  0.00000000       0.024
  -0.40000000  0.30000000 -0.00000000       0.024
  -0.30000000  0.30000000 -0.00000000       0.012
   0.40000000  0.40000000 -0.00000000       0.006
   0.50000000  0.40000000 -0.00000000       0.024
  -0.40000000  0.40000000  0.00000000       0.012
   0.50000000  0.50000000 -0.00000000       0.003
   0.30000000  0.20000000  0.10000000       0.024
   0.40000000  0.20000000  0.10000000       0.048
   0.50000000  0.20000000  0.10000000       0.048
  -0.40000000  0.20000000  0.10000000       0.024
   0.40000000  0.30000000  0.10000000       0.024
   0.50000000  0.30000000  0.10000000       0.048
  -0.40000000  0.30000000  0.10000000       0.048
  -0.30000000  0.30000000  0.10000000       0.048
  -0.20000000  0.30000000  0.10000000       0.024
   0.50000000  0.40000000  0.10000000       0.024
  -0.40000000  0.40000000  0.10000000       0.048
  -0.30000000  0.40000000  0.10000000       0.024
  -0.40000000  0.50000000  0.10000000       0.012
  -0.40000000  0.40000000  0.20000000       0.024
  -0.30000000  0.40000000  0.20000000       0.024
  -0.30000000  0.50000000  0.20000000       0.012

 position of ions in fractional coordinates (direct lattice)
   0.00000000  0.00000000  0.00000000
   0.25000000  0.25000000  0.25000000

 position of ions in cartesian coordinates  (Angst):
   0.00000000  0.00000000  0.00000000
   1.27570977  1.27570977  1.27570977

 k-point  1 :   0.0000 0.0000 0.0000  plane waves:    1687
 k-point  2 :   0.1000 0.0000-0.0000  plane waves:    1720
 k-point  3 :   0.2000 0.0000-0.0000  plane waves:    1714
 k-point  4 :   0.3000 0.0000 0.0000  plane waves:    1697
 k-point  5 :   0.4000 0.0000-0.0000  plane waves:    1685
 k-point  6 :   0.5000 0.0000-0.0000  plane waves:    1694
 k-point  7 :   0.1000 0.1000-0.0000  plane waves:    1731
 k-point  8 :   0.2000 0.1000 0.0000  plane waves:    1720
 k-point  9 :   0.3000 0.1000-0.0000  plane waves:    1712
 k-point 10 :   0.4000 0.1000-0.0000  plane waves:    1696
 k-point 11 :   0.5000 0.1000-0.0000  plane waves:    1717
 k-point 12 :  -0.4000 0.1000 0.0000  plane waves:    1707
 k-point 13 :  -0.3000 0.1000-0.0000  plane waves:    1704
 k-point 14 :  -0.2000 0.1000-0.0000  plane waves:    1708
 k-point 15 :  -0.1000 0.1000 0.0000  plane waves:    1735
 k-point 16 :   0.2000 0.2000-0.0000  plane waves:    1716
 k-point 17 :   0.3000 0.2000 0.0000  plane waves:    1701
 k-point 18 :   0.4000 0.2000 0.0000  plane waves:    1703
 k-point 19 :   0.5000 0.2000 0.0000  plane waves:    1705
 k-point 20 :  -0.4000 0.2000-0.0000  plane waves:    1711
 k-point 21 :  -0.3000 0.2000 0.0000  plane waves:    1705
 k-point 22 :  -0.2000 0.2000 0.0000  plane waves:    1708
 k-point 23 :   0.3000 0.3000-0.0000  plane waves:    1712
 k-point 24 :   0.4000 0.3000 0.0000  plane waves:    1699
 k-point 25 :   0.5000 0.3000 0.0000  plane waves:    1703
 k-point 26 :  -0.4000 0.3000-0.0000  plane waves:    1702
 k-point 27 :  -0.3000 0.3000-0.0000  plane waves:    1708
 k-point 28 :   0.4000 0.4000-0.0000  plane waves:    1712
 k-point 29 :   0.5000 0.4000-0.0000  plane waves:    1708
 k-point 30 :  -0.4000 0.4000 0.0000  plane waves:    1692
 k-point 31 :   0.5000 0.5000-0.0000  plane waves:    1724
 k-point 32 :   0.3000 0.2000 0.1000  plane waves:    1704
 k-point 33 :   0.4000 0.2000 0.1000  plane waves:    1707
 k-point 34 :   0.5000 0.2000 0.1000  plane waves:    1711
 k-point 35 :  -0.4000 0.2000 0.1000  plane waves:    1714
 k-point 36 :   0.4000 0.3000 0.1000  plane waves:    1695
 k-point 37 :   0.5000 0.3000 0.1000  plane waves:    1699
 k-point 38 :  -0.4000 0.3000 0.1000  plane waves:    1710
 k-point 39 :  -0.3000 0.3000 0.1000  plane waves:    1714
 k-point 40 :  -0.2000 0.3000 0.1000  plane waves:    1712
 k-point 41 :   0.5000 0.4000 0.1000  plane waves:    1701
 k-point 42 :  -0.4000 0.4000 0.1000  plane waves:    1694
 k-point 43 :  -0.3000 0.4000 0.1000  plane waves:    1697
 k-point 44 :  -0.4000 0.5000 0.1000  plane waves:    1706
 k-point 45 :  -0.4000 0.4000 0.2000  plane waves:    1701
 k-point 46 :  -0.3000 0.4000 0.2000  plane waves:    1704
 k-point 47 :  -0.3000 0.5000 0.2000  plane waves:    1708

 maximum and minimum number of plane-waves per node :       359      317

 maximum number of plane-waves:      1735
 maximum index in each direction:
   IXMAX=    8   IYMAX=    8   IZMAX=    8
   IXMIN=   -8   IYMIN=   -8   IZMIN=   -8

 parallel 3D FFT for wavefunctions:
    minimum data exchange during FFTs selected (reduces bandwidth)
 parallel 3D FFT for charge:
    minimum data exchange during FFTs selected (reduces bandwidth)

 Broyden mixing: mesh for mixing (old mesh)
   NGX = 17   NGY = 17   NGZ = 17
  (NGX  = 72   NGY  = 72   NGZ  = 72)
  gives a total of   4913 points

 initial charge density was supplied:
 charge density of overlapping atoms calculated
 number of electron       8.0000000 magnetization
 keeping initial charge density in first step

 Maximum index for augmentation-charges       130631 (set IRDMAX)

 First call to EWALD:  gamma=   0.551
 Maximum number of real-space cells 3x 3x 3
 Maximum number of reciprocal cells 3x 3x 3

--------------------------------------- Iteration      1(   1)  ---------------------------------------

 eigenvalue-minimisations  :   752
 total energy-change (2. order) : 0.3157715E+02  (-0.4960339E+03)
 number of electron       8.0000000 magnetization
 augmentation part        8.0000000 magnetization

 Free energy of the ion-electron system (eV)
  alpha Z        PSCENC =         4.93650165
  Ewald energy   TEWEN  =      -253.89263616
  -Hartree energ DENC   =       -75.46852551
  -exchange      EXHF   =         0.00000000
  -V(xc)+E(xc)   XCENC  =       -36.64671883
  PAW double counting   =       299.15547576     -240.96704793
  entropy T*S    EENTRO =        -0.00017176
  eigenvalues    EBANDS =        16.12377212
  atomic energy  EATOM  =       318.33649992
  Solvation  Ediel_sol  =         0.00000000
  free energy    TOTEN  =        31.57714927 eV

  energy without entropy =       31.57732103  energy(sigma->0) =       31.57723515

[...]

 eigenvalue-minimisations  :  1088
 total energy-change (2. order) :-0.4246555E+02  (-0.4098648E+02)
 number of electron       8.0000000 magnetization
 augmentation part        8.0000000 magnetization

[...]

 Broyden mixing:
  rms(total) = 0.10095E+01    rms(broyden)= 0.10095E+01
  rms(prec ) = 0.30928E+01
  weight for this iteration     100.00

[...]

 eigenvalues of (default mixing * dielectric matrix)
  average eigenvalue GAMMA=   1.4839
  1.4839

[...]

 eigenvalue-minimisations  :   848
 total energy-change (2. order) :-0.1937918E-04  (-0.1222538E-04)
 number of electron       8.0000000 magnetization
 augmentation part       -0.4046832 magnetization

[...]

 Broyden mixing:
  rms(total) = 0.16164E-03    rms(broyden)= 0.16164E-03
  rms(prec ) = 0.33339E-03
  weight for this iteration     100.00

 eigenvalues of (default mixing * dielectric matrix)
  average eigenvalue GAMMA=   2.4862
  5.2611  4.9047  4.2482  1.3858  1.1346  0.9721  0.9721  1.0109

[...]

--------------------------------------- Iteration      1(  17)  ---------------------------------------

 eigenvalue-minimisations  :   696
 total energy-change (2. order) : 0.1697049E-07  (-0.1556159E-07)
 number of electron       8.0000000 magnetization
 augmentation part       -0.4048050 magnetization

 Free energy of the ion-electron system (eV)
  alpha Z        PSCENC =         4.93650165
  Ewald energy   TEWEN  =      -253.89263616
  -Hartree energ DENC   =       -92.18511729
  -exchange      EXHF   =         0.00000000
  -V(xc)+E(xc)   XCENC  =       -35.11892204
  PAW double counting   =       739.90260642     -682.35547512
  entropy T*S    EENTRO =        -0.00001543
  eigenvalues    EBANDS =       -10.24724153
  atomic energy  EATOM  =       318.33649992
  Solvation  Ediel_sol  =         0.00000000
  free energy    TOTEN  =       -10.62379957 eV

  energy without entropy =      -10.62378414  energy(sigma->0) =      -10.62379186

 average (electrostatic) potential at core
  the test charge radii are     1.4837  0.7089
  (the norm of the test charge is              1.0000)
       1 -37.4087       2 -63.6363

 E-fermi :   3.7490     XC(G=0):  -9.9893     alpha+bet :-10.8082

 k-point     1 :       0.0000    0.0000    0.0000
  band No.  band energies     occupation
      1     -10.3170      2.00000
      2       3.1885      2.00000
      3       3.7460      1.33337
      4       3.7460      1.33333
      5       3.7460      1.33330
      6      12.8701      0.00000
      7      12.8701      0.00000
      8      12.8701      0.00000

[...]

 k-point    47 :      -0.3000    0.5000    0.2000
  band No.  band energies     occupation
      1      -8.3637      2.00000
      2      -0.8154      2.00000
      3       1.1135      2.00000
      4       1.1748      2.00000
      5       8.5837      0.00000
      6       9.7817      0.00000
      7      12.0139      0.00000
      8      12.5401      0.00000

 soft charge-density along one line, spin component           1
         0         1         2         3         4         5         6         7         8         9
 total charge-density along one line

------------------------ aborting loop because EDIFF is reached ----------------------------------------

 total charge

# of ion       s       p       d       tot
    1        1.113   1.444   0.395   2.951
    2        1.250   2.318   0.000   3.568
tot          2.363   3.762   0.395   6.519

  FORCE on cell =-STRESS in cart. coord.  units (eV):
  Direction    XX          YY          ZZ          XY          YZ          ZX
  Alpha Z     4.93650     4.93650     4.93650
  Ewald     -84.63091   -84.63091   -84.63091     0.00000    -0.00000     0.00000
  Hartree    30.72804    30.72804    30.72804     0.00000     0.00000     0.00000
  E(xc)     -33.94054   -33.94054   -33.94054     0.00000     0.00000     0.00000
  Local     -42.55683   -42.55683   -42.55683    -0.00000    -0.00000    -0.00000
  n-local    20.52969    20.70141    21.46982    -1.28586     1.06656    -0.58686
  augment    -5.18672    -5.18672    -5.18672     0.00000     0.00000     0.00000
  Kinetic   112.13766   111.28834   105.82334     5.15544    -3.37584     2.01740
  Fock        0.00000     0.00000     0.00000     0.00000     0.00000     0.00000
  Total      -0.00038    -0.00038    -0.00038     0.00000     0.00000     0.00000
  in kB      -0.01820    -0.01820    -0.01820     0.00000     0.00000     0.00000

 VOLUME and BASIS-vectors are now :
  energy-cutoff  :      800.00
  volume of cell :       33.22
      direct lattice vectors                 reciprocal lattice vectors
     0.000000000  2.551419548  2.551419548    -0.195969338  0.195969338  0.195969338
     2.551419548  0.000000000  2.551419548     0.195969338 -0.195969338  0.195969338
     2.551419548  2.551419548  0.000000000     0.195969338  0.195969338 -0.195969338

  length of vectors
     3.608252129  3.608252129  3.608252129     0.339428850  0.339428850  0.339428850

 FORCES acting on ions
    electron-ion (+dipol)            ewald-force                    non-local-force                 convergence-correction
   -.110E-08 -.110E-08 -.107E-08   0.403E-14 -.266E-14 0.174E-14   0.169E-16 -.108E-16 0.203E-16   -.156E-09 -.156E-09 -.156E-09
   -.191E-08 -.191E-08 -.172E-08   -.408E-14 0.286E-14 -.150E-14   0.209E-16 0.209E-16 0.277E-16   -.113E-09 -.113E-09 -.113E-09
   -.301E-08 -.301E-08 -.279E-08   -.496E-16 0.201E-15 0.235E-15   0.378E-16 0.101E-16 0.480E-16   -.269E-09 -.269E-09 -.269E-09

 POSITION                                       TOTAL-FORCE (eV/Angst)
      0.00000      0.00000      0.00000        -0.000000     -0.000000     -0.000000
      1.27571      1.27571      1.27571         0.000000      0.000000      0.000000
    total drift:                               -0.000000     -0.000000     -0.000000

  FREE ENERGIE OF THE ION-ELECTRON SYSTEM (eV)
  free  energy   TOTEN  =       -10.62379957 eV

  energy  without entropy=      -10.62378414  energy(sigma->0) =      -10.62379186

 reached required accuracy - stopping structural energy minimisation

 total charge

# of ion       s       p       d       tot
    1        1.113   1.444   0.395   2.951
    2        1.250   2.318   0.000   3.568
tot          2.363   3.762   0.395   6.519