 vasp.5.4.4.18Apr17-6-g9f103f2a35 (build Apr 10 2018 17:34:00) complex

 executed on             LinuxIFC date 2018.10.04  08:03:55

 INCAR:
 POTCAR:    PAW_PBE Al 04Jan2001
 POTCAR:    PAW_PBE N 08Apr2002
 POTCAR:    PAW_PBE Al 04Jan2001

 POTCAR:    PAW_PBE N 08Apr2002

  PAW_PBE Al 04Jan2001                  :
  PAW_PBE N 08Apr2002                   :

 POSCAR: AlN
  positions in direct lattice
  velocities in cartesian coordinates
 exchange correlation table for  LEXCH =        8
   RHO(1)=    0.500       N(1)  =     2000
   RHO(2)=  100.500       N(2)  =     4000

 ion  position               nearest neighbor table
   1  0.000  0.000  0.000-   2 1.91   2 1.91   2 1.91   2 1.91
   2  0.250  0.250  0.250-   1 1.91   1 1.91   1 1.91   1 1.91

  LATTYP: Found a face centered cubic cell.
 ALAT       =     4.4012685904

  Lattice vectors:

 A1 = (   0.0000000000,   2.2006342952,   2.2006342952)
 A2 = (   2.2006342952,   0.0000000000,   2.2006342952)
 A3 = (   2.2006342952,   2.2006342952,   0.0000000000)

Analysis of symmetry for initial positions (statically):
 Subroutine PRICEL returns:
 Original cell was already a primitive cell.

 Routine SETGRP: Setting up the symmetry group for a
 face centered cubic supercell.

 Subroutine GETGRP returns: Found 24 space group operations
 (whereof 24 operations were pure point group operations)
 out of a pool of 48 trial point group operations.

The static configuration has the point symmetry T_d .

Analysis of symmetry for dynamics (positions and initial velocities):
 Subroutine PRICEL returns:
 Original cell was already a primitive cell.

 Routine SETGRP: Setting up the symmetry group for a
 face centered cubic supercell.

 Subroutine GETGRP returns: Found 24 space group operations
 (whereof 24 operations were pure point group operations)
 out of a pool of 48 trial point group operations.

The dynamic configuration has the point symmetry T_d .

 Subroutine INISYM returns: Found 24 space group operations
 (whereof 24 operations are pure point group operations),
 and found     1 'primitive' translations

 KPOINTS: AlN

Automatic generation of k-mesh.
 generate k-points for:   12   12   12
Space group operators:
 irot       det(A)        alpha          n_x          n_y          n_z        tau_x        tau_y        tau_z
    1     1.000000     0.000000     1.000000     0.000000     0.000000     0.000000     0.000000     0.000000
    2     1.000000   120.000000    -0.577350    -0.577350    -0.577350     0.000000     0.000000     0.000000
    3     1.000000   120.000000     0.577350     0.577350     0.577350     0.000000     0.000000     0.000000
    4    -1.000000    90.000000     0.000000     0.000000    -1.000000     0.000000     0.000000     0.000000
    5    -1.000000   180.000000     0.000000     0.707107     0.707107     0.000000     0.000000     0.000000
    6    -1.000000    90.000000    -0.000000     1.000000     0.000000     0.000000     0.000000     0.000000
    7     1.000000   180.000000     0.000000    -0.000000     1.000000     0.000000     0.000000     0.000000
    8     1.000000   120.000000    -0.577350     0.577350     0.577350     0.000000     0.000000     0.000000
    9     1.000000   120.000000    -0.577350     0.577350    -0.577350     0.000000     0.000000     0.000000
   10    -1.000000    90.000000     0.000000     0.000000     1.000000     0.000000     0.000000     0.000000
   11    -1.000000    90.000000    -1.000000     0.000000     0.000000     0.000000     0.000000     0.000000
   12    -1.000000   180.000000     0.707107     0.000000     0.707107     0.000000     0.000000     0.000000
   13     1.000000   120.000000     0.577350    -0.577350     0.577350     0.000000     0.000000     0.000000
   14     1.000000   120.000000    -0.577350    -0.577350     0.577350     0.000000     0.000000     0.000000
   15     1.000000   180.000000     1.000000     0.000000     0.000000     0.000000     0.000000     0.000000
   16    -1.000000    90.000000     0.000000    -1.000000    -0.000000     0.000000     0.000000     0.000000
   17    -1.000000   180.000000     0.707107     0.707107    -0.000000     0.000000     0.000000     0.000000
   18    -1.000000    90.000000     1.000000     0.000000     0.000000     0.000000     0.000000     0.000000
   19     1.000000   120.000000     0.577350    -0.577350    -0.577350     0.000000     0.000000     0.000000
   20     1.000000   180.000000     0.000000     1.000000     0.000000     0.000000     0.000000     0.000000
   21     1.000000   120.000000     0.577350     0.577350    -0.577350     0.000000     0.000000     0.000000
   22    -1.000000   180.000000     0.000000    -0.707107     0.707107     0.000000     0.000000     0.000000
   23    -1.000000   180.000000     0.707107    -0.707107     0.000000     0.000000     0.000000     0.000000
   24    -1.000000   180.000000     0.707107     0.000000    -0.707107     0.000000     0.000000     0.000000

 Subroutine IBZKPT returns following result:

 Found     72 irreducible k-points:

 Following reciprocal coordinates:
            Coordinates               Weight
  0.000000  0.000000  0.000000      1.000000
  0.083333  0.000000 -0.000000      8.000000
  0.166667  0.000000 -0.000000      8.000000
  0.250000  0.000000 -0.000000      8.000000
  0.333333 -0.000000  0.000000      8.000000
  0.416667 -0.000000  0.000000      8.000000
  0.500000  0.000000 -0.000000      4.000000
  0.083333  0.083333 -0.000000      6.000000
  0.166667  0.083333 -0.000000     24.000000
  0.250000  0.083333 -0.000000     24.000000
  0.333333  0.083333  0.000000     24.000000
  0.416667  0.083333 -0.000000     24.000000
  0.500000  0.083333  0.000000     24.000000
 -0.416667  0.083333  0.000000     24.000000
 -0.333333  0.083333  0.000000     24.000000
 -0.250000  0.083333 -0.000000     24.000000
 -0.166667  0.083333  0.000000     24.000000
 -0.083333  0.083333  0.000000     12.000000
  0.166667  0.166667 -0.000000      6.000000
  0.250000  0.166667 -0.000000     24.000000
  0.333333  0.166667 -0.000000     24.000000
  0.416667  0.166667  0.000000     24.000000
  0.500000  0.166667  0.000000     24.000000
 -0.416667  0.166667 -0.000000     24.000000
 -0.333333  0.166667  0.000000     24.000000
 -0.250000  0.166667 -0.000000     24.000000
 -0.166667  0.166667  0.000000     12.000000
  0.250000  0.250000 -0.000000      6.000000
  0.333333  0.250000 -0.000000     24.000000
  0.416667  0.250000 -0.000000     24.000000
  0.500000  0.250000  0.000000     24.000000
 -0.416667  0.250000 -0.000000     24.000000
 -0.333333  0.250000 -0.000000     24.000000
 -0.250000  0.250000  0.000000     12.000000
  0.333333  0.333333 -0.000000      6.000000
  0.416667  0.333333 -0.000000     24.000000
  0.500000  0.333333 -0.000000     24.000000
 -0.416667  0.333333 -0.000000     24.000000
 -0.333333  0.333333 -0.000000     12.000000
  0.416667  0.416667 -0.000000      6.000000
  0.500000  0.416667 -0.000000     24.000000
 -0.416667  0.416667 -0.000000     12.000000
  0.500000  0.500000 -0.000000      3.000000
  0.250000  0.166667  0.083333     24.000000
  0.333333  0.166667  0.083333     48.000000
  0.416667  0.166667  0.083333     48.000000
  0.500000  0.166667  0.083333     48.000000
 -0.416667  0.166667  0.083333     24.000000
  0.333333  0.250000  0.083333     24.000000
  0.416667  0.250000  0.083333     48.000000
  0.500000  0.250000  0.083333     48.000000
 -0.416667  0.250000  0.083333     48.000000
 -0.333333  0.250000  0.083333     48.000000
 -0.250000  0.250000  0.083333     48.000000
 -0.166667  0.250000  0.083333     24.000000
  0.416667  0.333333  0.083333     24.000000
  0.500000  0.333333  0.083333     48.000000
 -0.416667  0.333333  0.083333     48.000000
 -0.333333  0.333333  0.083333     48.000000
 -0.250000  0.333333  0.083333     24.000000
  0.500000  0.416667  0.083333     24.000000
 -0.416667  0.416667  0.083333     48.000000
 -0.333333  0.416667  0.083333     24.000000
 -0.416667  0.500000  0.083333     12.000000
  0.500000  0.333333  0.166667     24.000000
 -0.416667  0.333333  0.166667     48.000000
 -0.333333  0.333333  0.166667     24.000000
 -0.416667  0.416667  0.166667     24.000000
 -0.333333  0.416667  0.166667     48.000000
 -0.250000  0.416667  0.166667     24.000000
 -0.333333  0.500000  0.166667     12.000000
 -0.250000  0.500000  0.250000      6.000000

 Following cartesian coordinates:
            Coordinates               Weight
  0.000000  0.000000  0.000000      1.000000
 -0.018934  0.018934  0.018934      8.000000
 -0.037868  0.037868  0.037868      8.000000
 -0.056802  0.056802  0.056802      8.000000
 -0.075736  0.075736  0.075736      8.000000
 -0.094670  0.094670  0.094670      8.000000
 -0.113604  0.113604  0.113604      4.000000
  0.000000 -0.000000  0.037868      6.000000
 -0.018934  0.018934  0.056802     24.000000
 -0.037868  0.037868  0.075736     24.000000
 -0.056802  0.056802  0.094670     24.000000
 -0.075736  0.075736  0.113604     24.000000
 -0.094670  0.094670  0.132538     24.000000
  0.113604 -0.113604 -0.075736     24.000000
  0.094670 -0.094670 -0.056802     24.000000
  0.075736 -0.075736 -0.037868     24.000000
  0.056802 -0.056802 -0.018934     24.000000
  0.037868 -0.037868 -0.000000     12.000000
  0.000000  0.000000  0.075736      6.000000
 -0.018934  0.018934  0.094670     24.000000
 -0.037868  0.037868  0.113604     24.000000
 -0.056802  0.056802  0.132538     24.000000
 -0.075736  0.075736  0.151471     24.000000
  0.132538 -0.132538 -0.056802     24.000000
  0.113604 -0.113604 -0.037868     24.000000
  0.094670 -0.094670 -0.018934     24.000000
  0.075736 -0.075736 -0.000000     12.000000
  0.000000  0.000000  0.113604      6.000000
 -0.018934  0.018934  0.132538     24.000000
 -0.037868  0.037868  0.151471     24.000000
 -0.056802  0.056802  0.170405     24.000000
  0.151471 -0.151471 -0.037868     24.000000
  0.132538 -0.132538 -0.018934     24.000000
  0.113604 -0.113604  0.000000     12.000000
  0.000000  0.000000  0.151471      6.000000
 -0.018934  0.018934  0.170405     24.000000
 -0.037868  0.037868  0.189339     24.000000
  0.170405 -0.170405 -0.018934     24.000000
  0.151471 -0.151471  0.000000     12.000000
 -0.000000  0.000000  0.189339      6.000000
 -0.018934  0.018934  0.208273     24.000000
  0.189339 -0.189339  0.000000     12.000000
  0.000000  0.000000  0.227207      3.000000
  0.000000  0.037868  0.075736     24.000000
 -0.018934  0.056802  0.094670     48.000000
 -0.037868  0.075736  0.113604     48.000000
 -0.056802  0.094670  0.132538     48.000000
  0.151471 -0.113604 -0.075736     24.000000
  0.000000  0.037868  0.113604     24.000000
 -0.018934  0.056802  0.132538     48.000000
 -0.037868  0.075736  0.151471     48.000000
  0.170405 -0.132538 -0.056802     48.000000
  0.151471 -0.113604 -0.037868     48.000000
  0.132538 -0.094670 -0.018934     48.000000
  0.113604 -0.075736  0.000000     24.000000
 -0.000000  0.037868  0.151471     24.000000
 -0.018934  0.056802  0.170405     48.000000
  0.189339 -0.151471 -0.037868     48.000000
  0.170405 -0.132538 -0.018934     48.000000
  0.151471 -0.113604  0.000000     24.000000
 -0.000000  0.037868  0.189339     24.000000
[...]
   0.22720722 -0.18933935  0.00000000       0.007
  -0.00000000  0.07573574  0.15147148       0.014
   0.20827328 -0.13253754 -0.05680180       0.028
   0.18933935 -0.11360361 -0.03786787       0.014
   0.22720722 -0.15147148 -0.03786787       0.014
   0.20827328 -0.13253754 -0.01893393       0.028
   0.18933935 -0.11360361  0.00000000       0.014
   0.22720722 -0.15147148  0.00000000       0.007
   0.22720722 -0.11360361 -0.00000000       0.003

 k-points in reciprocal lattice and weights: AlN
   0.00000000  0.00000000  0.00000000       0.001
   0.08333333  0.00000000 -0.00000000       0.005
   0.16666667  0.00000000 -0.00000000       0.005
   0.25000000  0.00000000 -0.00000000       0.005
   0.33333333 -0.00000000  0.00000000       0.005
   0.41666667 -0.00000000  0.00000000       0.005
   0.50000000  0.00000000 -0.00000000       0.002
   0.08333333  0.08333333 -0.00000000       0.003
   0.16666667  0.08333333 -0.00000000       0.014
   0.25000000  0.08333333 -0.00000000       0.014
   0.33333333  0.08333333  0.00000000       0.014
   0.41666667  0.08333333 -0.00000000       0.014
   0.50000000  0.08333333  0.00000000       0.014
  -0.41666667  0.08333333  0.00000000       0.014
  -0.33333333  0.08333333  0.00000000       0.014
  -0.25000000  0.08333333 -0.00000000       0.014
  -0.16666667  0.08333333  0.00000000       0.014
  -0.08333333  0.08333333  0.00000000       0.007
   0.16666667  0.16666667 -0.00000000       0.003
   0.25000000  0.16666667 -0.00000000       0.014
   0.33333333  0.16666667 -0.00000000       0.014
   0.41666667  0.16666667  0.00000000       0.014
   0.50000000  0.16666667  0.00000000       0.014
  -0.41666667  0.16666667 -0.00000000       0.014
  -0.33333333  0.16666667  0.00000000       0.014
  -0.25000000  0.16666667 -0.00000000       0.014
  -0.16666667  0.16666667  0.00000000       0.007
   0.25000000  0.25000000 -0.00000000       0.003
   0.33333333  0.25000000 -0.00000000       0.014
   0.41666667  0.25000000 -0.00000000       0.014
   0.50000000  0.25000000  0.00000000       0.014
  -0.41666667  0.25000000 -0.00000000       0.014
  -0.33333333  0.25000000 -0.00000000       0.014
  -0.25000000  0.25000000  0.00000000       0.007
   0.33333333  0.33333333 -0.00000000       0.003
   0.41666667  0.33333333 -0.00000000       0.014
   0.50000000  0.33333333 -0.00000000       0.014
  -0.41666667  0.33333333 -0.00000000       0.014
  -0.33333333  0.33333333 -0.00000000       0.007
   0.41666667  0.41666667 -0.00000000       0.003
   0.50000000  0.41666667 -0.00000000       0.014
  -0.41666667  0.41666667 -0.00000000       0.007
   0.50000000  0.50000000 -0.00000000       0.002
   0.25000000  0.16666667  0.08333333       0.014
   0.33333333  0.16666667  0.08333333       0.028
   0.41666667  0.16666667  0.08333333       0.028
   0.50000000  0.16666667  0.08333333       0.028
  -0.41666667  0.16666667  0.08333333       0.014
   0.33333333  0.25000000  0.08333333       0.014
   0.41666667  0.25000000  0.08333333       0.028
   0.50000000  0.25000000  0.08333333       0.028
  -0.41666667  0.25000000  0.08333333       0.028
  -0.33333333  0.25000000  0.08333333       0.028
  -0.25000000  0.25000000  0.08333333       0.028
  -0.16666667  0.25000000  0.08333333       0.014
   0.41666667  0.33333333  0.08333333       0.014
   0.50000000  0.33333333  0.08333333       0.028
  -0.41666667  0.33333333  0.08333333       0.028
  -0.33333333  0.33333333  0.08333333       0.028
  -0.25000000  0.33333333  0.08333333       0.014
   0.50000000  0.41666667  0.08333333       0.014
  -0.41666667  0.41666667  0.08333333       0.028
  -0.33333333  0.41666667  0.08333333       0.014
  -0.41666667  0.50000000  0.08333333       0.007
   0.50000000  0.33333333  0.16666667       0.014
  -0.41666667  0.33333333  0.16666667       0.028
  -0.33333333  0.33333333  0.16666667       0.014
  -0.41666667  0.41666667  0.16666667       0.014
  -0.33333333  0.41666667  0.16666667       0.028
  -0.25000000  0.41666667  0.16666667       0.014
  -0.33333333  0.50000000  0.16666667       0.007
  -0.25000000  0.50000000  0.25000000       0.003

 position of ions in fractional coordinates (direct lattice)
   0.00000000  0.00000000  0.00000000
   0.25000000  0.25000000  0.25000000

 position of ions in cartesian coordinates  (Angst):
   0.00000000  0.00000000  0.00000000
   1.10031715  1.10031715  1.10031715

 k-point  1 :   0.0000 0.0000 0.0000  plane waves:    1067
 k-point  2 :   0.0833 0.0000-0.0000  plane waves:    1091
 k-point  3 :   0.1667 0.0000-0.0000  plane waves:    1092
 k-point  4 :   0.2500 0.0000-0.0000  plane waves:    1089
 k-point  5 :   0.3333-0.0000 0.0000  plane waves:    1089
 k-point  6 :   0.4167-0.0000 0.0000  plane waves:    1095
 k-point  7 :   0.5000 0.0000-0.0000  plane waves:    1104
 k-point  8 :   0.0833 0.0833-0.0000  plane waves:    1086
 k-point  9 :   0.1667 0.0833-0.0000  plane waves:    1093
 k-point 10 :   0.2500 0.0833-0.0000  plane waves:    1090
 k-point 11 :   0.3333 0.0833 0.0000  plane waves:    1095
 k-point 12 :   0.4167 0.0833-0.0000  plane waves:    1097
 k-point 13 :   0.5000 0.0833 0.0000  plane waves:    1096
 k-point 14 :  -0.4167 0.0833 0.0000  plane waves:    1102
 k-point 15 :  -0.3333 0.0833 0.0000  plane waves:    1099
 k-point 16 :  -0.2500 0.0833-0.0000  plane waves:    1097
 k-point 17 :  -0.1667 0.0833 0.0000  plane waves:    1092
 k-point 18 :  -0.0833 0.0833 0.0000  plane waves:    1087
 k-point 19 :   0.1667 0.1667-0.0000  plane waves:    1094
 k-point 20 :   0.2500 0.1667-0.0000  plane waves:    1093
 k-point 21 :   0.3333 0.1667-0.0000  plane waves:    1089
 k-point 22 :   0.4167 0.1667 0.0000  plane waves:    1092
 k-point 23 :   0.5000 0.1667 0.0000  plane waves:    1095
 k-point 24 :  -0.4167 0.1667-0.0000  plane waves:    1092
 k-point 25 :  -0.3333 0.1667 0.0000  plane waves:    1095
 k-point 26 :  -0.2500 0.1667-0.0000  plane waves:    1093
 k-point 27 :  -0.1667 0.1667 0.0000  plane waves:    1089
 k-point 28 :   0.2500 0.2500-0.0000  plane waves:    1094
 k-point 29 :   0.3333 0.2500-0.0000  plane waves:    1088
 k-point 30 :   0.4167 0.2500-0.0000  plane waves:    1089
 k-point 31 :   0.5000 0.2500 0.0000  plane waves:    1096
 k-point 32 :  -0.4167 0.2500-0.0000  plane waves:    1105
 k-point 33 :  -0.3333 0.2500-0.0000  plane waves:    1105
 k-point 34 :  -0.2500 0.2500 0.0000  plane waves:    1097
 k-point 35 :   0.3333 0.3333-0.0000  plane waves:    1078
 k-point 36 :   0.4167 0.3333-0.0000  plane waves:    1086
 k-point 37 :   0.5000 0.3333-0.0000  plane waves:    1100
 k-point 38 :  -0.4167 0.3333-0.0000  plane waves:    1105
 k-point 39 :  -0.3333 0.3333-0.0000  plane waves:    1113
 k-point 40 :   0.4167 0.4167-0.0000  plane waves:    1086
 k-point 41 :   0.5000 0.4167-0.0000  plane waves:    1096
 k-point 42 :  -0.4167 0.4167-0.0000  plane waves:    1106
 k-point 43 :   0.5000 0.5000-0.0000  plane waves:    1106
 k-point 44 :   0.2500 0.1667 0.0833  plane waves:    1094
 k-point 45 :   0.3333 0.1667 0.0833  plane waves:    1093
 k-point 46 :   0.4167 0.1667 0.0833  plane waves:    1089
 k-point 47 :   0.5000 0.1667 0.0833  plane waves:    1098
 k-point 48 :  -0.4167 0.1667 0.0833  plane waves:    1100
 k-point 49 :   0.3333 0.2500 0.0833  plane waves:    1093
 k-point 50 :   0.4167 0.2500 0.0833  plane waves:    1089
 k-point 51 :   0.5000 0.2500 0.0833  plane waves:    1090
 k-point 52 :  -0.4167 0.2500 0.0833  plane waves:    1099
 k-point 53 :  -0.3333 0.2500 0.0833  plane waves:    1095
 k-point 54 :  -0.2500 0.2500 0.0833  plane waves:    1098
 k-point 55 :  -0.1667 0.2500 0.0833  plane waves:    1100
 k-point 56 :   0.4167 0.3333 0.0833  plane waves:    1079
 k-point 57 :   0.5000 0.3333 0.0833  plane waves:    1088
 k-point 58 :  -0.4167 0.3333 0.0833  plane waves:    1097
 k-point 59 :  -0.3333 0.3333 0.0833  plane waves:    1102
 k-point 60 :  -0.2500 0.3333 0.0833  plane waves:    1100
 k-point 61 :   0.5000 0.4167 0.0833  plane waves:    1090
 k-point 62 :  -0.4167 0.4167 0.0833  plane waves:    1100
 k-point 63 :  -0.3333 0.4167 0.0833  plane waves:    1100
 k-point 64 :  -0.4167 0.5000 0.0833  plane waves:    1110
 k-point 65 :   0.5000 0.3333 0.1667  plane waves:    1094
 k-point 66 :  -0.4167 0.3333 0.1667  plane waves:    1095
 k-point 67 :  -0.3333 0.3333 0.1667  plane waves:    1098
 k-point 68 :  -0.4167 0.4167 0.1667  plane waves:    1099
 k-point 69 :  -0.3333 0.4167 0.1667  plane waves:    1100
 k-point 70 :  -0.2500 0.4167 0.1667  plane waves:    1102
 k-point 71 :  -0.3333 0.5000 0.1667  plane waves:    1098
 k-point 72 :  -0.2500 0.5000 0.2500  plane waves:    1084

 maximum and minimum number of plane-waves per node :       231      208

 maximum number of plane-waves:      1113
 maximum index in each direction:
   IXMAX=    7   IYMAX=    7   IZMAX=    7
   IXMIN=   -7   IYMIN=   -7   IZMIN=   -7

 parallel 3D FFT for wavefunctions:
    minimum data exchange during FFTs selected (reduces bandwidth)
 parallel 3D FFT for charge:
    minimum data exchange during FFTs selected (reduces bandwidth)

 Broyden mixing: mesh for mixing (old mesh)
   NGX = 15   NGY = 15   NGZ = 15
  (NGX  = 60   NGY  = 60   NGZ  = 60)
  gives a total of   3375 points

 initial charge density was supplied:
 charge density of overlapping atoms calculated
 number of electron       8.0000000 magnetization
 keeping initial charge density in first step

 Maximum index for augmentation-charges        38067 (set IRDMAX)

 First call to EWALD:  gamma=   0.639
 Maximum number of real-space cells 3x 3x 3
 Maximum number of reciprocal cells 3x 3x 3

--------------------------------------- Iteration      1(   1)  ---------------------------------------

 eigenvalue-minimisations  :  1152
 total energy-change (2. order) : 0.2329117E+02  (-0.5072477E+03)
 number of electron       8.0000000 magnetization
 augmentation part        8.0000000 magnetization

 Free energy of the ion-electron system (eV)
  alpha Z        PSCENC =         7.66789344
  Ewald energy   TEWEN  =      -294.36360076
  -Hartree energ DENC   =       -59.81596692
  -exchange      EXHF   =         0.00000000
  -V(xc)+E(xc)   XCENC  =        -6.13555598
  PAW double counting   =       271.13288874     -240.36933646
  entropy T*S    EENTRO =        -0.00006742
  eigenvalues    EBANDS =        27.09059336
  atomic energy  EATOM  =       318.08432528
  Solvation  Ediel_sol  =         0.00000000
  free energy    TOTEN  =        23.29117328 eV

  energy without entropy =       23.29124070  energy(sigma->0) =       23.29120699

[...]

 eigenvalue-minimisations  :  1544
 total energy-change (2. order) :-0.3930037E+02  (-0.3864224E+02)
 number of electron       8.0000000 magnetization
 augmentation part        8.0000000 magnetization

[...]

 Broyden mixing:
  rms(total) = 0.85070E+00    rms(broyden)= 0.85069E+00
  rms(prec ) = 0.33147E+01
  weight for this iteration     100.00

[...]

 eigenvalues of (default mixing * dielectric matrix)
  average eigenvalue GAMMA=   1.6656
  1.6656

[...]

 eigenvalue-minimisations  :  1192
 total energy-change (2. order) :-0.1402080E-06  (-0.2603748E-07)
 number of electron       8.0000000 magnetization
 augmentation part        0.2050206 magnetization

 Broyden mixing:
  rms(total) = 0.17547E-03    rms(broyden)= 0.17546E-03
  rms(prec ) = 0.49832E-03
  weight for this iteration     100.00

 eigenvalues of (default mixing * dielectric matrix)
  average eigenvalue GAMMA=   2.4727
  5.4751  4.9076  4.9076  1.7762  1.0634  1.0634  1.1213  0.9700  0.9700

[...]

--------------------------------------- Iteration      1(  18)  ---------------------------------------

 eigenvalue-minimisations  :   688
 total energy-change (2. order) : 0.4178651E-07  (-0.2233797E-07)
 number of electron       8.0000000 magnetization
 augmentation part        0.2050206 magnetization

 Free energy of the ion-electron system (eV)
  alpha Z        PSCENC =         7.66789344
  Ewald energy   TEWEN  =      -294.36360076
  -Hartree energ DENC   =       -77.98947449
  -exchange      EXHF   =         0.00000000
  -V(xc)+E(xc)   XCENC  =        -4.67702248
  PAW double counting   =       704.17150828     -673.69702217
  entropy T*S    EENTRO =         0.00000000
  eigenvalues    EBANDS =         5.95010823
  atomic energy  EATOM  =       318.08432528
  Solvation  Ediel_sol  =         0.00000000
  free energy    TOTEN  =       -14.85328467 eV

  energy without entropy =      -14.85328467  energy(sigma->0) =      -14.85328467

 average (electrostatic) potential at core
  the test charge radii are     1.0406  0.7089
  (the norm of the test charge is              1.0000)
       1 -71.9296       2 -60.1691

 E-fermi :   6.8919     XC(G=0): -10.8353     alpha+bet :-15.5925

 k-point     1 :       0.0000    0.0000    0.0000
  band No.  band energies     occupation
      1      -9.0932      2.00000
      2       5.7568      2.00000
      3       5.7568      2.00000
      4       5.7568      2.00000
      5       9.7551      0.00000
      6      18.0925      0.00000
      7      18.0925      0.00000
      8      18.0925      0.00000

[...]

 k-point    72 :      -0.2500    0.5000    0.2500
  band No.  band energies     occupation
      1      -6.4438      2.00000
      2       2.0002      2.00000
      3       2.3966      2.00000
      4       3.1109      2.00000
      5      11.7513      0.00000
      6      17.0547      0.00000
      7      17.5161      0.00000
      8      17.6106      0.00000

 soft charge-density along one line, spin component           1
         0         1         2         3         4         5         6         7         8         9
 total charge-density along one line

------------------------ aborting loop because EDIFF is reached ----------------------------------------

 total charge

# of ion       s       p       d       tot
    1        0.367   0.434   0.000   0.802
    2        1.219   2.588   0.000   3.807
tot          1.586   3.023   0.000   4.609

  FORCE on cell =-STRESS in cart. coord.  units (eV):
  Direction    XX          YY          ZZ          XY          YZ          ZX
  Alpha Z     7.66789     7.66789     7.66789
  Ewald     -98.12124   -98.12124   -98.12124     0.00000     0.00000     0.00000
  Hartree    25.99610    25.99610    25.99610     0.00000     0.00000     0.00000
  E(xc)     -31.24782   -31.24782   -31.24782    -0.00000    -0.00000    -0.00000
  Local     -26.41141   -26.41141   -26.41141    -0.00000    -0.00000    -0.00000
  n-local     5.51773     6.30047     4.38928    -0.86042     0.76813    -0.46867
  augment     0.32268     0.32268     0.32268     0.00000     0.00000     0.00000
  Kinetic   118.97757   116.62910   113.56568     4.83311    -3.09325     2.03279
  Fock        0.00000     0.00000     0.00000     0.00000     0.00000     0.00000
  Total      -0.00052    -0.00052    -0.00052    -0.00000     0.00000    -0.00000
  in kB      -0.03911    -0.03911    -0.03911    -0.00000     0.00000    -0.00000

 VOLUME and BASIS-vectors are now :
  energy-cutoff  :      800.00
  volume of cell :       21.31
      direct lattice vectors                 reciprocal lattice vectors
     0.000000000  2.200634295  2.200634295    -0.227207220  0.227207220  0.227207220
     2.200634295  0.000000000  2.200634295     0.227207220 -0.227207220  0.227207220
     2.200634295  2.200634295  0.000000000     0.227207220  0.227207220 -0.227207220

  length of vectors
     3.112166866  3.112166866  3.112166866     0.393534449  0.393534449  0.393534449

 FORCES acting on ions
    electron-ion (+dipol)            ewald-force                    non-local-force                 convergence-correction
   0.124E-07 0.124E-07 0.135E-07   -.216E-14 0.130E-14 -.514E-14   0.405E-16 -.705E-16 -.604E-16   -.836E-10 -.836E-10 -.836E-10
   0.366E-09 0.366E-09 0.351E-09   0.229E-14 -.133E-14 0.531E-14   -.201E-17 -.201E-17 0.779E-17   -.552E-10 -.552E-10 -.552E-10
   0.128E-07 0.128E-07 0.138E-07   0.128E-15 -.332E-16 0.166E-15   0.385E-16 -.725E-16 -.526E-16   -.139E-09 -.139E-09 -.139E-09

 POSITION                                       TOTAL-FORCE (eV/Angst)
      0.00000      0.00000      0.00000         0.000000      0.000000      0.000000
      1.10032      1.10032      1.10032        -0.000000     -0.000000     -0.000000
    total drift:                                0.000000      0.000000      0.000000

  FREE ENERGIE OF THE ION-ELECTRON SYSTEM (eV)
  free  energy   TOTEN  =       -14.85328467 eV

  energy  without entropy=      -14.85328467  energy(sigma->0) =      -14.85328467

 reached required accuracy - stopping structural energy minimisation

 total charge

# of ion       s       p       d       tot
    1        0.367   0.434   0.000   0.802
    2        1.219   2.588   0.000   3.807
tot          1.586   3.023   0.000   4.609