 vasp.5.4.4.18Apr17-6-g9f103f2a35 (build Apr 10 2018 17:34:00) complex

 executed on             LinuxIFC date 2018.10.04  08:27:08

 INCAR:
 POTCAR:    PAW_PBE In 08Apr2002
 POTCAR:    PAW_PBE Sb 06Sep2000
 POTCAR:    PAW_PBE In 08Apr2002

 POTCAR:    PAW_PBE Sb 06Sep2000

  PAW_PBE In 08Apr2002                  :
  PAW_PBE Sb 06Sep2000                  :

 POSCAR: InSb
  positions in direct lattice
  velocities in cartesian coordinates
 exchange correlation table for  LEXCH =        8
   RHO(1)=    0.500       N(1)  =     2000
   RHO(2)=  100.500       N(2)  =     4000

 ion  position               nearest neighbor table
   1  0.000  0.000  0.000-   2 2.88   2 2.88   2 2.88   2 2.88
   2  0.250  0.250  0.250-   1 2.88   1 2.88   1 2.88   1 2.88

  LATTYP: Found a face centered cubic cell.
 ALAT       =     6.6482236498

  Lattice vectors:

 A1 = (   0.0000000000,   3.3241118249,   3.3241118249)
 A2 = (   3.3241118249,   0.0000000000,   3.3241118249)
 A3 = (   3.3241118249,   3.3241118249,   0.0000000000)

Analysis of symmetry for initial positions (statically):
 Subroutine PRICEL returns:
 Original cell was already a primitive cell.

 Routine SETGRP: Setting up the symmetry group for a
 face centered cubic supercell.

 Subroutine GETGRP returns: Found 24 space group operations
 (whereof 24 operations were pure point group operations)
 out of a pool of 48 trial point group operations.

The static configuration has the point symmetry T_d .

Analysis of symmetry for dynamics (positions and initial velocities):
 Subroutine PRICEL returns:
 Original cell was already a primitive cell.

 Routine SETGRP: Setting up the symmetry group for a
 face centered cubic supercell.

 Subroutine GETGRP returns: Found 24 space group operations
 (whereof 24 operations were pure point group operations)
 out of a pool of 48 trial point group operations.

The dynamic configuration has the point symmetry T_d .

 Subroutine INISYM returns: Found 24 space group operations
 (whereof 24 operations are pure point group operations),
 and found     1 'primitive' translations

 KPOINTS: InSb

Automatic generation of k-mesh.
 generate k-points for:    8    8    8
Space group operators:
 irot       det(A)        alpha          n_x          n_y          n_z        tau_x        tau_y        tau_z
    1     1.000000     0.000000     1.000000     0.000000     0.000000     0.000000     0.000000     0.000000
    2     1.000000   120.000000    -0.577350    -0.577350    -0.577350     0.000000     0.000000     0.000000
    3     1.000000   120.000000     0.577350     0.577350     0.577350     0.000000     0.000000     0.000000
    4    -1.000000    90.000000     0.000000     0.000000    -1.000000     0.000000     0.000000     0.000000
    5    -1.000000   180.000000    -0.000000     0.707107     0.707107     0.000000     0.000000     0.000000
    6    -1.000000    90.000000     0.000000     1.000000     0.000000     0.000000     0.000000     0.000000
    7     1.000000   180.000000    -0.000000    -0.000000     1.000000     0.000000     0.000000     0.000000
    8     1.000000   120.000000    -0.577350     0.577350     0.577350     0.000000     0.000000     0.000000
    9     1.000000   120.000000    -0.577350     0.577350    -0.577350     0.000000     0.000000     0.000000
   10    -1.000000    90.000000    -0.000000    -0.000000     1.000000     0.000000     0.000000     0.000000
   11    -1.000000    90.000000    -1.000000    -0.000000    -0.000000     0.000000     0.000000     0.000000
   12    -1.000000   180.000000     0.707107     0.000000     0.707107     0.000000     0.000000     0.000000
   13     1.000000   120.000000     0.577350    -0.577350     0.577350     0.000000     0.000000     0.000000
   14     1.000000   120.000000    -0.577350    -0.577350     0.577350     0.000000     0.000000     0.000000
   15     1.000000   180.000000     1.000000     0.000000     0.000000     0.000000     0.000000     0.000000
   16    -1.000000    90.000000     0.000000    -1.000000     0.000000     0.000000     0.000000     0.000000
   17    -1.000000   180.000000     0.707107     0.707107     0.000000     0.000000     0.000000     0.000000
   18    -1.000000    90.000000     1.000000     0.000000     0.000000     0.000000     0.000000     0.000000
   19     1.000000   120.000000     0.577350    -0.577350    -0.577350     0.000000     0.000000     0.000000
   20     1.000000   180.000000    -0.000000    -1.000000    -0.000000     0.000000     0.000000     0.000000
   21     1.000000   120.000000     0.577350     0.577350    -0.577350     0.000000     0.000000     0.000000
   22    -1.000000   180.000000     0.000000    -0.707107     0.707107     0.000000     0.000000     0.000000
   23    -1.000000   180.000000     0.707107    -0.707107    -0.000000     0.000000     0.000000     0.000000
   24    -1.000000   180.000000    -0.707107     0.000000     0.707107     0.000000     0.000000     0.000000

 Subroutine IBZKPT returns following result:

 Found     29 irreducible k-points:

 Following reciprocal coordinates:
            Coordinates               Weight
  0.000000  0.000000  0.000000      1.000000
  0.125000 -0.000000  0.000000      8.000000
  0.250000 -0.000000  0.000000      8.000000
  0.375000 -0.000000  0.000000      8.000000
  0.500000 -0.000000  0.000000      4.000000
  0.125000  0.125000  0.000000      6.000000
  0.250000  0.125000  0.000000     24.000000
  0.375000  0.125000  0.000000     24.000000
  0.500000  0.125000  0.000000     24.000000
 -0.375000  0.125000 -0.000000     24.000000
 -0.250000  0.125000 -0.000000     24.000000
 -0.125000  0.125000 -0.000000     12.000000
  0.250000  0.250000  0.000000      6.000000
  0.375000  0.250000  0.000000     24.000000
  0.500000  0.250000  0.000000     24.000000
 -0.375000  0.250000 -0.000000     24.000000
 -0.250000  0.250000 -0.000000     12.000000
  0.375000  0.375000  0.000000      6.000000
  0.500000  0.375000  0.000000     24.000000
 -0.375000  0.375000 -0.000000     12.000000
  0.500000  0.500000  0.000000      3.000000
  0.375000  0.250000  0.125000     24.000000
  0.500000  0.250000  0.125000     48.000000
 -0.375000  0.250000  0.125000     24.000000
  0.500000  0.375000  0.125000     24.000000
 -0.375000  0.375000  0.125000     48.000000
 -0.250000  0.375000  0.125000     24.000000
 -0.375000  0.500000  0.125000     12.000000
 -0.250000  0.500000  0.250000      6.000000

 Following cartesian coordinates:
            Coordinates               Weight
  0.000000  0.000000  0.000000      1.000000
 -0.018802  0.018802  0.018802      8.000000
 -0.037604  0.037604  0.037604      8.000000
 -0.056406  0.056406  0.056406      8.000000
 -0.075208  0.075208  0.075208      4.000000
  0.000000  0.000000  0.037604      6.000000
 -0.018802  0.018802  0.056406     24.000000
 -0.037604  0.037604  0.075208     24.000000
 -0.056406  0.056406  0.094010     24.000000
  0.075208 -0.075208 -0.037604     24.000000
  0.056406 -0.056406 -0.018802     24.000000
  0.037604 -0.037604  0.000000     12.000000
  0.000000  0.000000  0.075208      6.000000
 -0.018802  0.018802  0.094010     24.000000
 -0.037604  0.037604  0.112812     24.000000
  0.094010 -0.094010 -0.018802     24.000000
  0.075208 -0.075208  0.000000     12.000000
  0.000000  0.000000  0.112812      6.000000
 -0.018802  0.018802  0.131614     24.000000
  0.112812 -0.112812  0.000000     12.000000
  0.000000  0.000000  0.150416      3.000000
  0.000000  0.037604  0.075208     24.000000
 -0.018802  0.056406  0.094010     48.000000
  0.112812 -0.075208 -0.037604     24.000000
  0.000000  0.037604  0.112812     24.000000
  0.131614 -0.094010 -0.018802     48.000000
  0.112812 -0.075208  0.000000     24.000000
  0.150416 -0.112812  0.000000     12.000000
  0.150416 -0.075208  0.000000      6.000000

 SYSTEM =  InSb
 POSCAR =  InSb

 Startparameter for this run:
   NWRITE =      1    write-flag & timer
   PREC   = accura    normal or accurate (medium, high low for compatibility)
   ISTART =      0    job   : 0-new  1-cont  2-samecut
   ICHARG =      2    charge: 1-file 2-atom 10-const
   ISPIN  =      1    spin polarized calculation?
   LNONCOLLINEAR =      F non collinear calculations
   LSORBIT =      F    spin-orbit coupling
   INIWAV =      1    electr: 0-lowe 1-rand  2-diag
   LASPH  =      T    aspherical Exc in radial PAW
   METAGGA=      F    non-selfconsistent MetaGGA calc.

 Electronic Relaxation 1
   ENCUT  =  344.0 eV  25.28 Ry    5.03 a.u.   7.11  7.11  7.11*2*pi/ulx,y,z
   ENINI  =  344.0     initial cutoff
   ENAUG  =  380.5 eV  augmentation charge cutoff
   NELM   =    100;   NELMIN=  6; NELMDL= -8     # of ELM steps
   EDIFF  = 0.1E-06   stopping-criterion for ELM
   LREAL  =      F    real-space projection
   NLSPLINE    = F    spline interpolate recip. space projectors
   LCOMPAT=      F    compatible to vasp.4.4
   GGA_COMPAT  = T    GGA compatible to vasp.4.4-vasp.4.6
   LMAXPAW     = -100 max onsite density
   LMAXMIX     =    6 max onsite mixed and CHGCAR
   VOSKOWN=      0    Vosko Wilk Nusair interpolation
   ROPT   =    0.00000   0.00000
 Ionic relaxation
   EDIFFG = -.1E-02   stopping-criterion for IOM
   NSW    =    100    number of steps for IOM
   NBLOCK =      1;   KBLOCK =    100    inner block; outer block
   IBRION =      2    ionic relax: 0-MD 1-quasi-New 2-CG
   NFREE  =      1    steps in history (QN), initial steepest desc. (CG)
   ISIF   =      3    stress and relaxation
   IWAVPR =     11    prediction:  0-non 1-charg 2-wave 3-comb
   ISYM   =      2    0-nonsym 1-usesym 2-fastsym
   LCORR  =      T    Harris-Foulkes like correction to forces

   POTIM  = 0.5000    time-step for ionic-motion
   TEIN   =    0.0    initial temperature
   TEBEG  =    0.0;   TEEND  =   0.0 temperature during run
   SMASS  =  -3.00    Nose mass-parameter (am)
   estimated Nose-frequenzy (Omega)   =  0.10E-29 period in steps =****** mass=  -0.505E-27a.u.
   SCALEE = 1.0000    scale energy and forces
   NPACO  =    256;   APACO  = 16.0  distance and # of slots for P.C.
   PSTRESS=    0.0 pullay stress

  Mass of Ions in am
   POMASS = 114.82121.75
  Ionic Valenz
   ZVAL   =   3.00  5.00
  Atomic Wigner-Seitz radii
  virtual crystal weights
   VCA    =   1.00  1.00
   NELECT =       8.0000    total number of electrons
   NUPDOWN=      -1.0000    fix difference up-down

 DOS related values:
   EMIN   =  10.00;   EMAX   =-10.00  energy-range for DOS
   EFERMI =   0.00
   ISMEAR =     0;   SIGMA  =   0.01  broadening in eV -4-tet -1-fermi 0-gaus

 Electronic relaxation 2 (details)
   IALGO  =     38    algorithm
   LDIAG  =      T    sub-space diagonalisation (order eigenvalues)
   LSUBROT=      F    optimize rotation matrix (better conditioning)
   TURBO    =      0    0=normal 1=particle mesh
   IRESTART =      0    0=no restart 2=restart with 2 vectors
   NREBOOT  =      0    no. of reboots
   NMIN     =      0    reboot dimension
   EREF     =   0.00    reference energy to select bands
   IMIX   =      4    mixing-type and parameters
     AMIX     =   0.20;   BMIX     =  0.00
     AMIX_MAG =   0.80;   BMIX_MAG =  0.00
     AMIN     =   0.10
     WC   =   100.;   INIMIX=   1;  MIXPRE=   1;  MAXMIX= -45

 Intra band minimization:
   WEIMIN = 0.0010     energy-eigenvalue tresh-hold
   EBREAK =  0.31E-08  absolut break condition
   DEPER  =   0.30     relativ break condition

   TIME   =   0.40     timestep for ELM

  volume/ion in A,a.u.               =      36.73       247.87
  Fermi-wavevector in a.u.,A,eV,Ry     =   0.781782  1.477354  8.315659  0.611184
  Thomas-Fermi vector in A             =   1.885371

 Write flags
   LWAVE        =      F    write WAVECAR
   LDOWNSAMPLE  =      F    k-point downsampling of WAVECAR
   LCHARG       =      F    write CHGCAR
   LVTOT        =      F    write LOCPOT, total local potential
   LVHAR        =      F    write LOCPOT, Hartree potential only
   LELF         =      F    write electronic localiz. function (ELF)
   LORBIT       =     10    0 simple, 1 ext, 2 COOP (PROOUT), +10 PAW based schemes

 Dipole corrections
   LMONO  =      F    monopole corrections only (constant potential shift)
   LDIPOL =      F    correct potential (dipole corrections)
   IDIPOL =      0    1-x, 2-y, 3-z, 4-all directions
   EPSILON=  1.0000000 bulk dielectric constant

 Exchange correlation treatment:
   GGA     =    --    GGA type
   VOSKOWN=      0    Vosko Wilk Nusair interpolation
   LHFCALC =     F    Hartree Fock is set to
   LHFONE  =     F    Hartree Fock one center treatment
   AEXX    =    0.0000 exact exchange contribution

 Linear response parameters
   LEPSILON=     F    determine dielectric tensor
   LRPA    =     F    only Hartree local field effects (RPA)
   LNABLA  =     F    use nabla operator in PAW spheres
   LVEL    =     F    velocity operator in full k-point grid
   LINTERFAST=   F  fast interpolation
   KINTER  =     0    interpolate to denser k-point grid
   CSHIFT  =0.1000    complex shift for real part using Kramers Kronig
   OMEGAMAX=  -1.0    maximum frequency
   DEG_THRESHOLD= 0.2000000E-02 threshold for treating states as degnerate
   RTIME   =   -0.100 relaxation time in fs
  (WPLASMAI=    0.000 imaginary part of plasma frequency in eV, 0.658/RTIME)
   DFIELD  = 0.0000000 0.0000000 0.0000000 field for delta impulse in time

 Orbital magnetization related:
   ORBITALMAG=     F  switch on orbital magnetization
   LCHIMAG   =     F  perturbation theory with respect to B field
   DQ        =  0.001000  dq finite difference perturbation B field
   LLRAUG    =     F  two centre corrections for induced B field

 conjugate gradient relaxation of ions
 charge density and potential will be updated during run
 non-spin polarized calculation
 Variant of blocked Davidson
 Davidson routine will perform the subspace rotation
 perform sub-space diagonalisation
    after iterative eigenvector-optimisation
 modified Broyden-mixing scheme, WC =      100.0
 initial mixing is a Kerker type mixing with AMIX =  0.2000 and BMIX =      0.0010
 Hartree-type preconditioning will be used
 using additional bands            4
 reciprocal scheme for non local part
 use partial core corrections
 calculate Harris-corrections to forces
   (improved forces if not selfconsistent)
 use gradient corrections
 use of overlap-Matrix (Vanderbilt PP)
 Gauss-broadening in eV      SIGMA  =   0.01

  energy-cutoff  :      344.00
  volume of cell :       73.46
      direct lattice vectors                 reciprocal lattice vectors
     0.000000000  3.324111825  3.324111825    -0.150416119  0.150416119  0.150416119
     3.324111825  0.000000000  3.324111825     0.150416119 -0.150416119  0.150416119
     3.324111825  3.324111825  0.000000000     0.150416119  0.150416119 -0.150416119

  length of vectors
     4.701004026  4.701004026  4.701004026     0.260528360  0.260528360  0.260528360

 k-points in units of 2pi/SCALE and weight: InSb
   0.00000000  0.00000000  0.00000000       0.002
  -0.01880201  0.01880201  0.01880201       0.016
  -0.03760403  0.03760403  0.03760403       0.016
  -0.05640604  0.05640604  0.05640604       0.016
  -0.07520806  0.07520806  0.07520806       0.008
   0.00000000  0.00000000  0.03760403       0.012
  -0.01880201  0.01880201  0.05640604       0.047
  -0.03760403  0.03760403  0.07520806       0.047
  -0.05640604  0.05640604  0.09401007       0.047
   0.07520806 -0.07520806 -0.03760403       0.047
   0.05640604 -0.05640604 -0.01880201       0.047
   0.03760403 -0.03760403  0.00000000       0.023
   0.00000000  0.00000000  0.07520806       0.012
  -0.01880201  0.01880201  0.09401007       0.047
  -0.03760403  0.03760403  0.11281209       0.047
   0.09401007 -0.09401007 -0.01880201       0.047
   0.07520806 -0.07520806  0.00000000       0.023
   0.00000000  0.00000000  0.11281209       0.012
  -0.01880201  0.01880201  0.13161410       0.047
   0.11281209 -0.11281209  0.00000000       0.023
   0.00000000  0.00000000  0.15041612       0.006
   0.00000000  0.03760403  0.07520806       0.047
  -0.01880201  0.05640604  0.09401007       0.094
   0.11281209 -0.07520806 -0.03760403       0.047
   0.00000000  0.03760403  0.11281209       0.047
   0.13161410 -0.09401007 -0.01880201       0.094
   0.11281209 -0.07520806  0.00000000       0.047
   0.15041612 -0.11281209  0.00000000       0.023
   0.15041612 -0.07520806  0.00000000       0.012

 k-points in reciprocal lattice and weights: InSb
   0.00000000  0.00000000  0.00000000       0.002
   0.12500000 -0.00000000  0.00000000       0.016
   0.25000000 -0.00000000  0.00000000       0.016
   0.37500000 -0.00000000  0.00000000       0.016
   0.50000000 -0.00000000  0.00000000       0.008
   0.12500000  0.12500000  0.00000000       0.012
   0.25000000  0.12500000  0.00000000       0.047
   0.37500000  0.12500000  0.00000000       0.047
   0.50000000  0.12500000  0.00000000       0.047
  -0.37500000  0.12500000 -0.00000000       0.047
  -0.25000000  0.12500000 -0.00000000       0.047
  -0.12500000  0.12500000 -0.00000000       0.023
   0.25000000  0.25000000  0.00000000       0.012
   0.37500000  0.25000000  0.00000000       0.047
   0.50000000  0.25000000  0.00000000       0.047
  -0.37500000  0.25000000 -0.00000000       0.047
  -0.25000000  0.25000000 -0.00000000       0.023
   0.37500000  0.37500000  0.00000000       0.012
   0.50000000  0.37500000  0.00000000       0.047
  -0.37500000  0.37500000 -0.00000000       0.023
   0.50000000  0.50000000  0.00000000       0.006
   0.37500000  0.25000000  0.12500000       0.047
   0.50000000  0.25000000  0.12500000       0.094
  -0.37500000  0.25000000  0.12500000       0.047
   0.50000000  0.37500000  0.12500000       0.047
  -0.37500000  0.37500000  0.12500000       0.094
  -0.25000000  0.37500000  0.12500000       0.047
  -0.37500000  0.50000000  0.12500000       0.023
  -0.25000000  0.50000000  0.25000000       0.012

 position of ions in fractional coordinates (direct lattice)
   0.00000000  0.00000000  0.00000000
   0.25000000  0.25000000  0.25000000

 position of ions in cartesian coordinates  (Angst):
   0.00000000  0.00000000  0.00000000
   1.66205591  1.66205591  1.66205591

 k-point  1 :   0.0000 0.0000 0.0000  plane waves:    1067
 k-point  2 :   0.1250-0.0000 0.0000  plane waves:    1058
 k-point  3 :   0.2500-0.0000 0.0000  plane waves:    1065
 k-point  4 :   0.3750-0.0000 0.0000  plane waves:    1059
 k-point  5 :   0.5000-0.0000 0.0000  plane waves:    1068
 k-point  6 :   0.1250 0.1250 0.0000  plane waves:    1054
 k-point  7 :   0.2500 0.1250 0.0000  plane waves:    1055
 k-point  8 :   0.3750 0.1250 0.0000  plane waves:    1061
 k-point  9 :   0.5000 0.1250 0.0000  plane waves:    1068
 k-point 10 :  -0.3750 0.1250-0.0000  plane waves:    1068
 k-point 11 :  -0.2500 0.1250-0.0000  plane waves:    1065
 k-point 12 :  -0.1250 0.1250-0.0000  plane waves:    1049
 k-point 13 :   0.2500 0.2500 0.0000  plane waves:    1062
 k-point 14 :   0.3750 0.2500 0.0000  plane waves:    1056
 k-point 15 :   0.5000 0.2500 0.0000  plane waves:    1064
 k-point 16 :  -0.3750 0.2500-0.0000  plane waves:    1074
 k-point 17 :  -0.2500 0.2500-0.0000  plane waves:    1065
 k-point 18 :   0.3750 0.3750 0.0000  plane waves:    1058
 k-point 19 :   0.5000 0.3750 0.0000  plane waves:    1064
 k-point 20 :  -0.3750 0.3750-0.0000  plane waves:    1063
 k-point 21 :   0.5000 0.5000 0.0000  plane waves:    1090
 k-point 22 :   0.3750 0.2500 0.1250  plane waves:    1060
 k-point 23 :   0.5000 0.2500 0.1250  plane waves:    1067
 k-point 24 :  -0.3750 0.2500 0.1250  plane waves:    1072
 k-point 25 :   0.5000 0.3750 0.1250  plane waves:    1067
 k-point 26 :  -0.3750 0.3750 0.1250  plane waves:    1070
 k-point 27 :  -0.2500 0.3750 0.1250  plane waves:    1069
 k-point 28 :  -0.3750 0.5000 0.1250  plane waves:    1070
 k-point 29 :  -0.2500 0.5000 0.2500  plane waves:    1048

 maximum and minimum number of plane-waves per node :       226      200

 maximum number of plane-waves:      1090
 maximum index in each direction:
   IXMAX=    7   IYMAX=    7   IZMAX=    7
   IXMIN=   -7   IYMIN=   -7   IZMIN=   -7

 parallel 3D FFT for wavefunctions:
    minimum data exchange during FFTs selected (reduces bandwidth)
 parallel 3D FFT for charge:
    minimum data exchange during FFTs selected (reduces bandwidth)

 Broyden mixing: mesh for mixing (old mesh)
   NGX = 15   NGY = 15   NGZ = 15
  (NGX  = 56   NGY  = 56   NGZ  = 56)
  gives a total of   3375 points

 initial charge density was supplied:
 charge density of overlapping atoms calculated
 number of electron       8.0000000 magnetization
 keeping initial charge density in first step

 Maximum index for augmentation-charges        29788 (set IRDMAX)

 First call to EWALD:  gamma=   0.423
 Maximum number of real-space cells 3x 3x 3
 Maximum number of reciprocal cells 3x 3x 3

--------------------------------------- Iteration      1(   1)  ---------------------------------------

 eigenvalue-minimisations  :   464
 total energy-change (2. order) : 0.1477352E+02  (-0.2221264E+03)
 number of electron       8.0000000 magnetization
 augmentation part        8.0000000 magnetization

 Free energy of the ion-electron system (eV)
  alpha Z        PSCENC =        -1.41261028
  Ewald energy   TEWEN  =      -194.87510325
  -Hartree energ DENC   =       -16.37733378
  -exchange      EXHF   =         0.00000000
  -V(xc)+E(xc)   XCENC  =      -102.19244635
  PAW double counting   =       257.90221424     -144.56680536
  entropy T*S    EENTRO =        -0.00040373
  eigenvalues    EBANDS =        12.55507244
  atomic energy  EATOM  =       203.74094076
  Solvation  Ediel_sol  =         0.00000000
  free energy    TOTEN  =        14.77352469 eV

  energy without entropy =       14.77392842  energy(sigma->0) =       14.77372656

[...]

 eigenvalue-minimisations  :   664
 total energy-change (2. order) :-0.2129208E+02  (-0.2059532E+02)
 number of electron       8.0000000 magnetization
 augmentation part        8.0000000 magnetization

[...]

 Broyden mixing:
  rms(total) = 0.38999E+00    rms(broyden)= 0.38999E+00
  rms(prec ) = 0.63136E+00
  weight for this iteration     100.00

[...]

 eigenvalues of (default mixing * dielectric matrix)
  average eigenvalue GAMMA=   4.4058
  4.4058

[...]

 eigenvalue-minimisations  :   296
 total energy-change (2. order) : 0.1087502E-06  (-0.3397789E-08)
 number of electron       8.0000000 magnetization
 augmentation part       -1.5028987 magnetization

 Broyden mixing:
  rms(total) = 0.14019E-03    rms(broyden)= 0.14016E-03
  rms(prec ) = 0.16861E-03
  weight for this iteration     100.00

 eigenvalues of (default mixing * dielectric matrix)
  average eigenvalue GAMMA=   2.7169
  5.7551  5.1392  4.6689  3.9187  2.3744  1.2098  1.2098  0.9805  0.9695  0.9432

[...]

--------------------------------------- Iteration      1(  19)  ---------------------------------------

 eigenvalue-minimisations  :   232
 total energy-change (2. order) :-0.1710106E-07  (-0.1678417E-08)
 number of electron       8.0000000 magnetization
 augmentation part       -1.5028987 magnetization

 Free energy of the ion-electron system (eV)
  alpha Z        PSCENC =        -1.41261028
  Ewald energy   TEWEN  =      -194.87510325
  -Hartree energ DENC   =       -18.89306277
  -exchange      EXHF   =         0.00000000
  -V(xc)+E(xc)   XCENC  =      -101.55982808
  PAW double counting   =       558.42962682     -445.45315884
  entropy T*S    EENTRO =        -0.00003013
  eigenvalues    EBANDS =        -6.90946910
  atomic energy  EATOM  =       203.74094076
  Solvation  Ediel_sol  =         0.00000000
  free energy    TOTEN  =        -6.93269486 eV

  energy without entropy =       -6.93266473  energy(sigma->0) =       -6.93267980

 average (electrostatic) potential at core
  the test charge radii are     1.4837  1.1712
  (the norm of the test charge is              1.0000)
       1 -39.1146       2 -88.8238

 E-fermi :   3.4255     XC(G=0):  -8.1847     alpha+bet : -8.5778

 k-point     1 :       0.0000    0.0000    0.0000
  band No.  band energies     occupation
      1      -6.8188      2.00000
      2       2.8407      2.00000
      3       3.4225      1.33335
      4       3.4225      1.33334
      5       3.4225      1.33331
      6       6.4094      0.00000
      7       6.4094      0.00000
      8       6.4094      0.00000

[...]

 k-point    29 :      -0.2500    0.5000    0.2500
  band No.  band energies     occupation
      1      -5.1844      2.00000
      2      -2.0542      2.00000
      3       0.8667      2.00000
      4       1.0090      2.00000
      5       6.6763      0.00000
      6       7.3977      0.00000
      7       7.5128      0.00000
      8       8.3594      0.00000

 soft charge-density along one line, spin component           1
         0         1         2         3         4         5         6         7         8         9
 total charge-density along one line

------------------------ aborting loop because EDIFF is reached ----------------------------------------

 total charge

# of ion       s       p       d       tot
    1        1.229   1.228   0.129   2.587
    2        1.145   1.297   0.016   2.457
tot          2.374   2.525   0.145   5.044

  FORCE on cell =-STRESS in cart. coord.  units (eV):
  Direction    XX          YY          ZZ          XY          YZ          ZX
  Alpha Z    -1.41261    -1.41261    -1.41261
  Ewald     -64.95839   -64.95839   -64.95839    -0.00000    -0.00000     0.00000
  Hartree     6.29764     6.29764     6.29764     0.00000     0.00000     0.00000
  E(xc)     -32.38586   -32.38586   -32.38586     0.00000     0.00000     0.00000
  Local     -44.99521   -44.99521   -44.99521     0.00001     0.00001     0.00001
  n-local   114.41195   115.91634   108.64155     3.06142    -1.62857     0.75436
  augment   -24.17792   -24.17792   -24.17792    -0.00001    -0.00001    -0.00001
  Kinetic    50.46055    50.27133    45.19201     3.32478    -1.31277     1.06946
  Fock        0.00000     0.00000     0.00000     0.00000     0.00000     0.00000
  Total      -0.00111    -0.00111    -0.00111     0.00000    -0.00000     0.00000
  in kB      -0.02415    -0.02415    -0.02415     0.00000    -0.00000     0.00000

 VOLUME and BASIS-vectors are now :
  energy-cutoff  :      344.00
  volume of cell :       73.46
      direct lattice vectors                 reciprocal lattice vectors
     0.000000000  3.324111825  3.324111825    -0.150416119  0.150416119  0.150416119
     3.324111825  0.000000000  3.324111825     0.150416119 -0.150416119  0.150416119
     3.324111825  3.324111825  0.000000000     0.150416119  0.150416119 -0.150416119

  length of vectors
     4.701004026  4.701004026  4.701004026     0.260528360  0.260528360  0.260528360

 FORCES acting on ions
    electron-ion (+dipol)            ewald-force                    non-local-force                 convergence-correction
   -.813E-07 -.813E-07 -.728E-07   -.235E-14 -.274E-15 0.741E-14   -.262E-16 -.331E-16 -.192E-16   -.582E-10 -.582E-10 -.582E-10
   0.118E-06 0.118E-06 0.107E-06   0.238E-14 0.485E-15 -.742E-14   -.120E-15 -.134E-15 -.109E-15   0.996E-10 0.996E-10 0.996E-10
   0.363E-07 0.363E-07 0.341E-07   0.276E-16 0.211E-15 -.158E-16   -.146E-15 -.167E-15 -.128E-15   0.415E-10 0.415E-10 0.415E-10

 POSITION                                       TOTAL-FORCE (eV/Angst)
      0.00000      0.00000      0.00000         0.000000     -0.000000     -0.000000
      1.66206      1.66206      1.66206        -0.000000      0.000000      0.000000
    total drift:                                0.000000      0.000000      0.000000

  FREE ENERGIE OF THE ION-ELECTRON SYSTEM (eV)
  free  energy   TOTEN  =        -6.93269486 eV

  energy  without entropy=       -6.93266473  energy(sigma->0) =       -6.93267980

 reached required accuracy - stopping structural energy minimisation

 total charge

# of ion       s       p       d       tot
    1        1.229   1.228   0.129   2.587
    2        1.145   1.297   0.016   2.457
tot          2.374   2.525   0.145   5.044