 vasp.5.4.4.18Apr17-6-g9f103f2a35 (build Apr 10 2018 17:34:00) complex

 executed on             LinuxIFC date 2018.10.04  08:19:44

 INCAR:
 POTCAR:    PAW_PBE Ga 08Apr2002
 POTCAR:    PAW_PBE P 06Sep2000
 POTCAR:    PAW_PBE Ga 08Apr2002

 POTCAR:    PAW_PBE P 06Sep2000

  PAW_PBE Ga 08Apr2002                  :
  PAW_PBE P 06Sep2000                   :

 POSCAR: GaP
  positions in direct lattice
  velocities in cartesian coordinates
 exchange correlation table for  LEXCH =        8
   RHO(1)=    0.500       N(1)  =     2000
   RHO(2)=  100.500       N(2)  =     4000

 ion  position               nearest neighbor table
   1  0.000  0.000  0.000-   2 2.40   2 2.40   2 2.40   2 2.40
   2  0.250  0.250  0.250-   1 2.40   1 2.40   1 2.40   1 2.40

  LATTYP: Found a face centered cubic cell.
 ALAT       =     5.5338030070

  Lattice vectors:

 A1 = (   0.0000000000,   2.7669015035,   2.7669015035)
 A2 = (   2.7669015035,   0.0000000000,   2.7669015035)
 A3 = (   2.7669015035,   2.7669015035,   0.0000000000)

Analysis of symmetry for initial positions (statically):
 Subroutine PRICEL returns:
 Original cell was already a primitive cell.

 Routine SETGRP: Setting up the symmetry group for a
 face centered cubic supercell.

 Subroutine GETGRP returns: Found 24 space group operations
 (whereof 24 operations were pure point group operations)
 out of a pool of 48 trial point group operations.

The static configuration has the point symmetry T_d .

Analysis of symmetry for dynamics (positions and initial velocities):
 Subroutine PRICEL returns:
 Original cell was already a primitive cell.

 Routine SETGRP: Setting up the symmetry group for a
 face centered cubic supercell.

 Subroutine GETGRP returns: Found 24 space group operations
 (whereof 24 operations were pure point group operations)
 out of a pool of 48 trial point group operations.

The dynamic configuration has the point symmetry T_d .

 Subroutine INISYM returns: Found 24 space group operations
 (whereof 24 operations are pure point group operations),
 and found     1 'primitive' translations

 KPOINTS: GaP

Automatic generation of k-mesh.
 generate k-points for:    9    9    9
Space group operators:
 irot       det(A)        alpha          n_x          n_y          n_z        tau_x        tau_y        tau_z
    1     1.000000     0.000000     1.000000     0.000000     0.000000     0.000000     0.000000     0.000000
    2     1.000000   120.000000    -0.577350    -0.577350    -0.577350     0.000000     0.000000     0.000000
    3     1.000000   120.000000     0.577350     0.577350     0.577350     0.000000     0.000000     0.000000
    4    -1.000000    90.000000     0.000000     0.000000    -1.000000     0.000000     0.000000     0.000000
    5    -1.000000   180.000000    -0.000000    -0.707107    -0.707107     0.000000     0.000000     0.000000
    6    -1.000000    90.000000    -0.000000     1.000000    -0.000000     0.000000     0.000000     0.000000
    7     1.000000   180.000000     0.000000     0.000000     1.000000     0.000000     0.000000     0.000000
    8     1.000000   120.000000    -0.577350     0.577350     0.577350     0.000000     0.000000     0.000000
    9     1.000000   120.000000    -0.577350     0.577350    -0.577350     0.000000     0.000000     0.000000
   10    -1.000000    90.000000    -0.000000     0.000000     1.000000     0.000000     0.000000     0.000000
   11    -1.000000    90.000000    -1.000000     0.000000     0.000000     0.000000     0.000000     0.000000
   12    -1.000000   180.000000     0.707107     0.000000     0.707107     0.000000     0.000000     0.000000
   13     1.000000   120.000000     0.577350    -0.577350     0.577350     0.000000     0.000000     0.000000
   14     1.000000   120.000000    -0.577350    -0.577350     0.577350     0.000000     0.000000     0.000000
   15     1.000000   180.000000     1.000000     0.000000     0.000000     0.000000     0.000000     0.000000
   16    -1.000000    90.000000     0.000000    -1.000000    -0.000000     0.000000     0.000000     0.000000
   17    -1.000000   180.000000     0.707107     0.707107    -0.000000     0.000000     0.000000     0.000000
   18    -1.000000    90.000000     1.000000     0.000000     0.000000     0.000000     0.000000     0.000000
   19     1.000000   120.000000     0.577350    -0.577350    -0.577350     0.000000     0.000000     0.000000
   20     1.000000   180.000000     0.000000     1.000000     0.000000     0.000000     0.000000     0.000000
   21     1.000000   120.000000     0.577350     0.577350    -0.577350     0.000000     0.000000     0.000000
   22    -1.000000   180.000000     0.000000     0.707107    -0.707107     0.000000     0.000000     0.000000
   23    -1.000000   180.000000    -0.707107     0.707107    -0.000000     0.000000     0.000000     0.000000
   24    -1.000000   180.000000     0.707107     0.000000    -0.707107     0.000000     0.000000     0.000000

 Subroutine IBZKPT returns following result:

 Found     35 irreducible k-points:

 Following reciprocal coordinates:
            Coordinates               Weight
  0.000000  0.000000  0.000000      1.000000
  0.111111  0.000000 -0.000000      8.000000
  0.222222 -0.000000 -0.000000      8.000000
  0.333333  0.000000  0.000000      8.000000
  0.444444 -0.000000 -0.000000      8.000000
  0.111111  0.111111 -0.000000      6.000000
  0.222222  0.111111 -0.000000     24.000000
  0.333333  0.111111 -0.000000     24.000000
  0.444444  0.111111 -0.000000     24.000000
 -0.444444  0.111111  0.000000     24.000000
 -0.333333  0.111111  0.000000     24.000000
 -0.222222  0.111111  0.000000     24.000000
 -0.111111  0.111111  0.000000     12.000000
  0.222222  0.222222 -0.000000      6.000000
  0.333333  0.222222 -0.000000     24.000000
  0.444444  0.222222 -0.000000     24.000000
 -0.444444  0.222222 -0.000000     24.000000
 -0.333333  0.222222  0.000000     24.000000
 -0.222222  0.222222 -0.000000     12.000000
  0.333333  0.333333 -0.000000      6.000000
  0.444444  0.333333  0.000000     24.000000
 -0.444444  0.333333 -0.000000     24.000000
 -0.333333  0.333333 -0.000000     12.000000
  0.444444  0.444444 -0.000000      6.000000
 -0.444444  0.444444 -0.000000     12.000000
  0.333333  0.222222  0.111111     24.000000
  0.444444  0.222222  0.111111     48.000000
 -0.444444  0.222222  0.111111     48.000000
  0.444444  0.333333  0.111111     24.000000
 -0.444444  0.333333  0.111111     48.000000
 -0.333333  0.333333  0.111111     48.000000
 -0.222222  0.333333  0.111111     24.000000
 -0.444444  0.444444  0.111111     24.000000
 -0.333333  0.444444  0.111111     24.000000
 -0.333333  0.444444  0.222222     24.000000

 Following cartesian coordinates:
            Coordinates               Weight
  0.000000  0.000000  0.000000      1.000000
 -0.020079  0.020079  0.020079      8.000000
 -0.040157  0.040157  0.040157      8.000000
 -0.060236  0.060236  0.060236      8.000000
 -0.080314  0.080314  0.080314      8.000000
  0.000000  0.000000  0.040157      6.000000
 -0.020079  0.020079  0.060236     24.000000
 -0.040157  0.040157  0.080314     24.000000
 -0.060236  0.060236  0.100393     24.000000
  0.100393 -0.100393 -0.060236     24.000000
  0.080314 -0.080314 -0.040157     24.000000
  0.060236 -0.060236 -0.020079     24.000000
  0.040157 -0.040157  0.000000     12.000000
  0.000000  0.000000  0.080314      6.000000
 -0.020079  0.020079  0.100393     24.000000
 -0.040157  0.040157  0.120472     24.000000
  0.120472 -0.120472 -0.040157     24.000000
  0.100393 -0.100393 -0.020079     24.000000
  0.080314 -0.080314  0.000000     12.000000
  0.000000 -0.000000  0.120472      6.000000
 -0.020079  0.020079  0.140550     24.000000
  0.140550 -0.140550 -0.020079     24.000000
  0.120472 -0.120472 -0.000000     12.000000
  0.000000  0.000000  0.160629      6.000000
  0.160629 -0.160629  0.000000     12.000000
  0.000000  0.040157  0.080314     24.000000
 -0.020079  0.060236  0.100393     48.000000
  0.140550 -0.100393 -0.060236     48.000000
 -0.000000  0.040157  0.120472     24.000000
  0.160629 -0.120472 -0.040157     48.000000
  0.140550 -0.100393 -0.020079     48.000000
  0.120472 -0.080314 -0.000000     24.000000
  0.180708 -0.140550 -0.020079     24.000000
  0.160629 -0.120472  0.000000     24.000000
  0.180708 -0.100393 -0.020079     24.000000

 SYSTEM =  GaP
 POSCAR =  GaP

 Startparameter for this run:
   NWRITE =      1    write-flag & timer
   PREC   = accura    normal or accurate (medium, high low for compatibility)
   ISTART =      0    job   : 0-new  1-cont  2-samecut
   ICHARG =      2    charge: 1-file 2-atom 10-const
   ISPIN  =      1    spin polarized calculation?
   LNONCOLLINEAR =      F non collinear calculations
   LSORBIT =      F    spin-orbit coupling
   INIWAV =      1    electr: 0-lowe 1-rand  2-diag
   LASPH  =      T    aspherical Exc in radial PAW
   METAGGA=      F    non-selfconsistent MetaGGA calc.

 Electronic Relaxation 1
   ENCUT  =  510.0 eV  37.48 Ry    6.12 a.u.   7.21  7.21  7.21*2*pi/ulx,y,z
   ENINI  =  510.0     initial cutoff
   ENAUG  =  342.9 eV  augmentation charge cutoff
   NELM   =    100;   NELMIN=  6; NELMDL= -8     # of ELM steps
   EDIFF  = 0.1E-06   stopping-criterion for ELM
   LREAL  =      F    real-space projection
   NLSPLINE    = F    spline interpolate recip. space projectors
   LCOMPAT=      F    compatible to vasp.4.4
   GGA_COMPAT  = T    GGA compatible to vasp.4.4-vasp.4.6
   LMAXPAW     = -100 max onsite density
   LMAXMIX     =    6 max onsite mixed and CHGCAR
   VOSKOWN=      0    Vosko Wilk Nusair interpolation
   ROPT   =    0.00000   0.00000
 Ionic relaxation
   EDIFFG = -.1E-02   stopping-criterion for IOM
   NSW    =    100    number of steps for IOM
   NBLOCK =      1;   KBLOCK =    100    inner block; outer block
   IBRION =      2    ionic relax: 0-MD 1-quasi-New 2-CG
   NFREE  =      1    steps in history (QN), initial steepest desc. (CG)
   ISIF   =      3    stress and relaxation
   IWAVPR =     11    prediction:  0-non 1-charg 2-wave 3-comb
   ISYM   =      2    0-nonsym 1-usesym 2-fastsym
   LCORR  =      T    Harris-Foulkes like correction to forces

   POTIM  = 0.5000    time-step for ionic-motion
   TEIN   =    0.0    initial temperature
   TEBEG  =    0.0;   TEEND  =   0.0 temperature during run
   SMASS  =  -3.00    Nose mass-parameter (am)
   estimated Nose-frequenzy (Omega)   =  0.10E-29 period in steps =****** mass=  -0.350E-27a.u.
   SCALEE = 1.0000    scale energy and forces
   NPACO  =    256;   APACO  = 16.0  distance and # of slots for P.C.
   PSTRESS=    0.0 pullay stress

  Mass of Ions in am
   POMASS =  69.72 30.97
  Ionic Valenz
   ZVAL   =   3.00  5.00
  Atomic Wigner-Seitz radii
  virtual crystal weights
   VCA    =   1.00  1.00
   NELECT =       8.0000    total number of electrons
   NUPDOWN=      -1.0000    fix difference up-down

 DOS related values:
   EMIN   =  10.00;   EMAX   =-10.00  energy-range for DOS
   EFERMI =   0.00
   ISMEAR =     0;   SIGMA  =   0.01  broadening in eV -4-tet -1-fermi 0-gaus

 Electronic relaxation 2 (details)
   IALGO  =     38    algorithm
   LDIAG  =      T    sub-space diagonalisation (order eigenvalues)
[...]
   IDIPOL =      0    1-x, 2-y, 3-z, 4-all directions
   EPSILON=  1.0000000 bulk dielectric constant

 Exchange correlation treatment:
   GGA     =    --    GGA type
   VOSKOWN=      0    Vosko Wilk Nusair interpolation
   LHFCALC =     F    Hartree Fock is set to
   LHFONE  =     F    Hartree Fock one center treatment
   AEXX    =    0.0000 exact exchange contribution

 Linear response parameters
   LEPSILON=     F    determine dielectric tensor
   LRPA    =     F    only Hartree local field effects (RPA)
   LNABLA  =     F    use nabla operator in PAW spheres
   LVEL    =     F    velocity operator in full k-point grid
   LINTERFAST=   F  fast interpolation
   KINTER  =     0    interpolate to denser k-point grid
   CSHIFT  =0.1000    complex shift for real part using Kramers Kronig
   OMEGAMAX=  -1.0    maximum frequency
   DEG_THRESHOLD= 0.2000000E-02 threshold for treating states as degnerate
   RTIME   =   -0.100 relaxation time in fs
  (WPLASMAI=    0.000 imaginary part of plasma frequency in eV, 0.658/RTIME)
   DFIELD  = 0.0000000 0.0000000 0.0000000 field for delta impulse in time

 Orbital magnetization related:
   ORBITALMAG=     F  switch on orbital magnetization
   LCHIMAG   =     F  perturbation theory with respect to B field
   DQ        =  0.001000  dq finite difference perturbation B field
   LLRAUG    =     F  two centre corrections for induced B field

 conjugate gradient relaxation of ions
 charge density and potential will be updated during run
 non-spin polarized calculation
 Variant of blocked Davidson
 Davidson routine will perform the subspace rotation
 perform sub-space diagonalisation
    after iterative eigenvector-optimisation
 modified Broyden-mixing scheme, WC =      100.0
 initial mixing is a Kerker type mixing with AMIX =  0.2000 and BMIX =      0.0010
 Hartree-type preconditioning will be used
 using additional bands            4
 reciprocal scheme for non local part
 use partial core corrections
 calculate Harris-corrections to forces
   (improved forces if not selfconsistent)
 use gradient corrections
 use of overlap-Matrix (Vanderbilt PP)
 Gauss-broadening in eV      SIGMA  =   0.01

  energy-cutoff  :      510.00
  volume of cell :       42.37
      direct lattice vectors                 reciprocal lattice vectors
     0.000000000  2.766901504  2.766901504    -0.180707553  0.180707553  0.180707553
     2.766901504  0.000000000  2.766901504     0.180707553 -0.180707553  0.180707553
     2.766901504  2.766901504  0.000000000     0.180707553  0.180707553 -0.180707553

  length of vectors
     3.912989632  3.912989632  3.912989632     0.312994663  0.312994663  0.312994663

 k-points in units of 2pi/SCALE and weight: GaP
   0.00000000  0.00000000  0.00000000       0.001
  -0.02007862  0.02007862  0.02007862       0.011
  -0.04015723  0.04015723  0.04015723       0.011
  -0.06023585  0.06023585  0.06023585       0.011
  -0.08031447  0.08031447  0.08031447       0.011
   0.00000000 -0.00000000  0.04015723       0.008
  -0.02007862  0.02007862  0.06023585       0.033
  -0.04015723  0.04015723  0.08031447       0.033
  -0.06023585  0.06023585  0.10039308       0.033
   0.10039308 -0.10039308 -0.06023585       0.033
   0.08031447 -0.08031447 -0.04015723       0.033
   0.06023585 -0.06023585 -0.02007862       0.033
   0.04015723 -0.04015723  0.00000000       0.016
   0.00000000 -0.00000000  0.08031447       0.008
  -0.02007862  0.02007862  0.10039308       0.033
  -0.04015723  0.04015723  0.12047170       0.033
   0.12047170 -0.12047170 -0.04015723       0.033
   0.10039308 -0.10039308 -0.02007862       0.033
   0.08031447 -0.08031447  0.00000000       0.016
   0.00000000 -0.00000000  0.12047170       0.008
  -0.02007862  0.02007862  0.14055032       0.033
   0.14055032 -0.14055032 -0.02007862       0.033
   0.12047170 -0.12047170 -0.00000000       0.016
   0.00000000 -0.00000000  0.16062894       0.008
   0.16062894 -0.16062894  0.00000000       0.016
   0.00000000  0.04015723  0.08031447       0.033
  -0.02007862  0.06023585  0.10039308       0.066
   0.14055032 -0.10039308 -0.06023585       0.066
  -0.00000000  0.04015723  0.12047170       0.033
   0.16062894 -0.12047170 -0.04015723       0.066
   0.14055032 -0.10039308 -0.02007862       0.066
   0.12047170 -0.08031447 -0.00000000       0.033
   0.18070755 -0.14055032 -0.02007862       0.033
   0.16062894 -0.12047170  0.00000000       0.033
   0.18070755 -0.10039308 -0.02007862       0.033

 k-points in reciprocal lattice and weights: GaP
   0.00000000  0.00000000  0.00000000       0.001
   0.11111111  0.00000000 -0.00000000       0.011
   0.22222222 -0.00000000 -0.00000000       0.011
   0.33333333  0.00000000  0.00000000       0.011
   0.44444444 -0.00000000 -0.00000000       0.011
   0.11111111  0.11111111 -0.00000000       0.008
   0.22222222  0.11111111 -0.00000000       0.033
   0.33333333  0.11111111 -0.00000000       0.033
   0.44444444  0.11111111 -0.00000000       0.033
  -0.44444444  0.11111111  0.00000000       0.033
  -0.33333333  0.11111111  0.00000000       0.033
  -0.22222222  0.11111111  0.00000000       0.033
  -0.11111111  0.11111111  0.00000000       0.016
   0.22222222  0.22222222 -0.00000000       0.008
   0.33333333  0.22222222 -0.00000000       0.033
   0.44444444  0.22222222 -0.00000000       0.033
  -0.44444444  0.22222222 -0.00000000       0.033
  -0.33333333  0.22222222  0.00000000       0.033
  -0.22222222  0.22222222 -0.00000000       0.016
   0.33333333  0.33333333 -0.00000000       0.008
   0.44444444  0.33333333  0.00000000       0.033
  -0.44444444  0.33333333 -0.00000000       0.033
  -0.33333333  0.33333333 -0.00000000       0.016
   0.44444444  0.44444444 -0.00000000       0.008
  -0.44444444  0.44444444 -0.00000000       0.016
   0.33333333  0.22222222  0.11111111       0.033
   0.44444444  0.22222222  0.11111111       0.066
  -0.44444444  0.22222222  0.11111111       0.066
   0.44444444  0.33333333  0.11111111       0.033
  -0.44444444  0.33333333  0.11111111       0.066
  -0.33333333  0.33333333  0.11111111       0.066
  -0.22222222  0.33333333  0.11111111       0.033
  -0.44444444  0.44444444  0.11111111       0.033
  -0.33333333  0.44444444  0.11111111       0.033
  -0.33333333  0.44444444  0.22222222       0.033

 position of ions in fractional coordinates (direct lattice)
   0.00000000  0.00000000  0.00000000
   0.25000000  0.25000000  0.25000000

 position of ions in cartesian coordinates  (Angst):
   0.00000000  0.00000000  0.00000000
   1.38345075  1.38345075  1.38345075

 k-point  1 :   0.0000 0.0000 0.0000  plane waves:    1067
 k-point  2 :   0.1111 0.0000-0.0000  plane waves:    1106
 k-point  3 :   0.2222-0.0000-0.0000  plane waves:    1104
 k-point  4 :   0.3333 0.0000 0.0000  plane waves:    1089
 k-point  5 :   0.4444-0.0000-0.0000  plane waves:    1113
 k-point  6 :   0.1111 0.1111-0.0000  plane waves:    1110
 k-point  7 :   0.2222 0.1111-0.0000  plane waves:    1112
 k-point  8 :   0.3333 0.1111-0.0000  plane waves:    1105
 k-point  9 :   0.4444 0.1111-0.0000  plane waves:    1113
 k-point 10 :  -0.4444 0.1111 0.0000  plane waves:    1100
 k-point 11 :  -0.3333 0.1111 0.0000  plane waves:    1111
 k-point 12 :  -0.2222 0.1111 0.0000  plane waves:    1107
 k-point 13 :  -0.1111 0.1111 0.0000  plane waves:    1113
 k-point 14 :   0.2222 0.2222-0.0000  plane waves:    1106
 k-point 15 :   0.3333 0.2222-0.0000  plane waves:    1099
 k-point 16 :   0.4444 0.2222-0.0000  plane waves:    1103
 k-point 17 :  -0.4444 0.2222-0.0000  plane waves:    1109
 k-point 18 :  -0.3333 0.2222 0.0000  plane waves:    1113
 k-point 19 :  -0.2222 0.2222-0.0000  plane waves:    1097
 k-point 20 :   0.3333 0.3333-0.0000  plane waves:    1110
 k-point 21 :   0.4444 0.3333 0.0000  plane waves:    1108
 k-point 22 :  -0.4444 0.3333-0.0000  plane waves:    1114
 k-point 23 :  -0.3333 0.3333-0.0000  plane waves:    1125
 k-point 24 :   0.4444 0.4444-0.0000  plane waves:    1102
 k-point 25 :  -0.4444 0.4444-0.0000  plane waves:    1118
 k-point 26 :   0.3333 0.2222 0.1111  plane waves:    1106
 k-point 27 :   0.4444 0.2222 0.1111  plane waves:    1108
 k-point 28 :  -0.4444 0.2222 0.1111  plane waves:    1114
 k-point 29 :   0.4444 0.3333 0.1111  plane waves:    1096
 k-point 30 :  -0.4444 0.3333 0.1111  plane waves:    1099
 k-point 31 :  -0.3333 0.3333 0.1111  plane waves:    1107
 k-point 32 :  -0.2222 0.3333 0.1111  plane waves:    1112
 k-point 33 :  -0.4444 0.4444 0.1111  plane waves:    1098
 k-point 34 :  -0.3333 0.4444 0.1111  plane waves:    1110
 k-point 35 :  -0.3333 0.4444 0.2222  plane waves:    1114

 maximum and minimum number of plane-waves per node :       229      210

 maximum number of plane-waves:      1125
 maximum index in each direction:
   IXMAX=    7   IYMAX=    7   IZMAX=    7
   IXMIN=   -7   IYMIN=   -7   IZMIN=   -7

 parallel 3D FFT for wavefunctions:
    minimum data exchange during FFTs selected (reduces bandwidth)
 parallel 3D FFT for charge:
    minimum data exchange during FFTs selected (reduces bandwidth)

 Broyden mixing: mesh for mixing (old mesh)
   NGX = 15   NGY = 15   NGZ = 15
  (NGX  = 60   NGY  = 60   NGZ  = 60)
  gives a total of   3375 points

 initial charge density was supplied:
 charge density of overlapping atoms calculated
 number of electron       8.0000000 magnetization
 keeping initial charge density in first step

 Maximum index for augmentation-charges        35625 (set IRDMAX)

 First call to EWALD:  gamma=   0.508
 Maximum number of real-space cells 3x 3x 3
 Maximum number of reciprocal cells 3x 3x 3

--------------------------------------- Iteration      1(   1)  ---------------------------------------

 eigenvalue-minimisations  :   560
 total energy-change (2. order) : 0.1614477E+02  (-0.3689933E+03)
 number of electron       8.0000000 magnetization
 augmentation part        8.0000000 magnetization

 Free energy of the ion-electron system (eV)
  alpha Z        PSCENC =        15.01455921
  Ewald energy   TEWEN  =      -234.11987534
  -Hartree energ DENC   =       -20.45532348
  -exchange      EXHF   =         0.00000000
  -V(xc)+E(xc)   XCENC  =       -16.09121844
  PAW double counting   =       201.82578961     -169.96916698
  entropy T*S    EENTRO =        -0.00033123
  eigenvalues    EBANDS =         5.02973516
  atomic energy  EATOM  =       234.91060119
  Solvation  Ediel_sol  =         0.00000000
  free energy    TOTEN  =        16.14476969 eV

  energy without entropy =       16.14510092  energy(sigma->0) =       16.14493530

[...]

 eigenvalue-minimisations  :   816
 total energy-change (2. order) :-0.2496453E+02  (-0.2373113E+02)
 number of electron       8.0000000 magnetization
 augmentation part        8.0000000 magnetization

[...]

 Broyden mixing:
  rms(total) = 0.48121E+00    rms(broyden)= 0.48121E+00
  rms(prec ) = 0.99203E+00
  weight for this iteration     100.00

[...]

 eigenvalues of (default mixing * dielectric matrix)
  average eigenvalue GAMMA=   3.9364
  3.9364

[...]

 eigenvalue-minimisations  :   720
 total energy-change (2. order) :-0.1481708E-05  (-0.3587993E-06)
 number of electron       8.0000000 magnetization
 augmentation part       -1.0079539 magnetization

[...]

 Broyden mixing:
  rms(total) = 0.27233E-03    rms(broyden)= 0.27232E-03
  rms(prec ) = 0.34286E-03
  weight for this iteration     100.00

 eigenvalues of (default mixing * dielectric matrix)
  average eigenvalue GAMMA=   2.7618
  5.4769  4.8464  3.8756  2.2533  2.5748  1.0416  1.0416  0.9842

[...]

--------------------------------------- Iteration      1(  17)  ---------------------------------------

 eigenvalue-minimisations  :   432
 total energy-change (2. order) : 0.4556841E-07  (-0.1441413E-07)
 number of electron       8.0000000 magnetization
 augmentation part       -1.0079169 magnetization

 Free energy of the ion-electron system (eV)
  alpha Z        PSCENC =        15.01455921
  Ewald energy   TEWEN  =      -234.11987534
  -Hartree energ DENC   =       -24.81293586
  -exchange      EXHF   =         0.00000000
  -V(xc)+E(xc)   XCENC  =       -15.32707487
  PAW double counting   =       752.06177715     -720.62442293
  entropy T*S    EENTRO =        -0.00000000
  eigenvalues    EBANDS =       -16.20937923
  atomic energy  EATOM  =       234.91060119
  Solvation  Ediel_sol  =         0.00000000
  free energy    TOTEN  =        -9.10675068 eV

  energy without entropy =       -9.10675068  energy(sigma->0) =       -9.10675068

 average (electrostatic) potential at core
  the test charge radii are     1.2767  0.9587
  (the norm of the test charge is              1.0000)
       1 -14.0959       2 -85.0446

 E-fermi :   3.0097     XC(G=0):  -9.1964     alpha+bet : -9.1333

 k-point     1 :       0.0000    0.0000    0.0000
  band No.  band energies     occupation
      1      -9.1974      2.00000
      2       2.9326      2.00000
      3       2.9326      2.00000
      4       2.9326      2.00000
      5       4.4486      0.00000
      6       6.8737      0.00000
      7       6.8737      0.00000
      8       6.8737      0.00000

[...]

 k-point    35 :      -0.3333    0.4444    0.2222
  band No.  band energies     occupation
      1      -6.6076      2.00000
      2      -3.2948      2.00000
      3      -0.5471      2.00000
      4       0.0659      2.00000
      5       7.2496      0.00000
      6       7.6071      0.00000
      7       8.5504      0.00000
      8      10.1836      0.00000

 soft charge-density along one line, spin component           1
         0         1         2         3         4         5         6         7         8         9
 total charge-density along one line

------------------------ aborting loop because EDIFF is reached ----------------------------------------

 total charge

# of ion       s       p       d       tot
    1        1.066   1.213   0.154   2.433
    2        1.026   1.501   0.000   2.527
tot          2.092   2.714   0.154   4.959

  FORCE on cell =-STRESS in cart. coord.  units (eV):
  Direction    XX          YY          ZZ          XY          YZ          ZX
  Alpha Z    15.01456    15.01456    15.01456
  Ewald     -78.03999   -78.03999   -78.03999    -0.00000     0.00000     0.00000
  Hartree     8.27085     8.27085     8.27085     0.00000     0.00000     0.00000
  E(xc)     -27.93135   -27.93135   -27.93135    -0.00000    -0.00000    -0.00000
  Local     -40.45947   -40.45947   -40.45947     0.00000     0.00000     0.00000
  n-local    63.65832    64.65689    60.40938     1.90930    -1.26563     0.61155
  augment    -7.19141    -7.19141    -7.19141    -0.00000    -0.00000    -0.00000
  Kinetic    69.53175    68.36831    64.38288     4.04852    -1.45931     1.25299
  Fock        0.00000     0.00000     0.00000     0.00000     0.00000     0.00000
  Total      -0.00097    -0.00097    -0.00097     0.00000     0.00000     0.00000
  in kB      -0.03654    -0.03654    -0.03654     0.00000     0.00000     0.00000

 VOLUME and BASIS-vectors are now :
  energy-cutoff  :      510.00
  volume of cell :       42.37
      direct lattice vectors                 reciprocal lattice vectors
     0.000000000  2.766901504  2.766901504    -0.180707553  0.180707553  0.180707553
     2.766901504  0.000000000  2.766901504     0.180707553 -0.180707553  0.180707553
     2.766901504  2.766901504  0.000000000     0.180707553  0.180707553 -0.180707553

  length of vectors
     3.912989632  3.912989632  3.912989632     0.312994663  0.312994663  0.312994663

 FORCES acting on ions
    electron-ion (+dipol)            ewald-force                    non-local-force                 convergence-correction
   0.470E-08 0.470E-08 0.800E-08   0.283E-14 0.298E-14 0.338E-14   -.916E-17 -.547E-17 -.613E-17   -.113E-09 -.113E-09 -.113E-09
   0.330E-08 0.330E-08 0.435E-08   -.279E-14 -.306E-14 -.309E-14   -.150E-16 -.428E-16 0.194E-16   0.295E-09 0.295E-09 0.295E-09
   0.800E-08 0.800E-08 0.123E-07   0.486E-16 -.761E-16 0.283E-15   -.242E-16 -.483E-16 0.132E-16   0.182E-09 0.182E-09 0.182E-09

 POSITION                                       TOTAL-FORCE (eV/Angst)
      0.00000      0.00000      0.00000        -0.000000     -0.000000     -0.000000
      1.38345      1.38345      1.38345         0.000000      0.000000      0.000000
    total drift:                                0.000000      0.000000      0.000000

  FREE ENERGIE OF THE ION-ELECTRON SYSTEM (eV)
  free  energy   TOTEN  =        -9.10675068 eV

  energy  without entropy=       -9.10675068  energy(sigma->0) =       -9.10675068

 reached required accuracy - stopping structural energy minimisation

 total charge

# of ion       s       p       d       tot
    1        1.066   1.213   0.154   2.433
    2        1.026   1.501   0.000   2.527
tot          2.092   2.714   0.154   4.959