 vasp.5.4.4.18Apr17-6-g9f103f2a35 (build Apr 10 2018 17:34:00) complex

 executed on             LinuxIFC date 2018.10.04  08:26:01

 INCAR:
 POTCAR:    PAW_PBE In 08Apr2002
 POTCAR:    PAW_PBE P 06Sep2000
 POTCAR:    PAW_PBE In 08Apr2002

 POTCAR:    PAW_PBE P 06Sep2000

  PAW_PBE In 08Apr2002                  :
  PAW_PBE P 06Sep2000                   :

 POSCAR: InP
  positions in direct lattice
  velocities in cartesian coordinates
 exchange correlation table for  LEXCH =        8
   RHO(1)=    0.500       N(1)  =     2000
   RHO(2)=  100.500       N(2)  =     4000

 ion  position               nearest neighbor table
   1  0.000  0.000  0.000-   2 2.60   2 2.60   2 2.60   2 2.60
   2  0.250  0.250  0.250-   1 2.60   1 2.60   1 2.60   1 2.60

  LATTYP: Found a face centered cubic cell.
 ALAT       =     6.0003998788

  Lattice vectors:

 A1 = (   0.0000000000,   3.0001999394,   3.0001999394)
 A2 = (   3.0001999394,   0.0000000000,   3.0001999394)
 A3 = (   3.0001999394,   3.0001999394,   0.0000000000)

Analysis of symmetry for initial positions (statically):
 Subroutine PRICEL returns:
 Original cell was already a primitive cell.

 Routine SETGRP: Setting up the symmetry group for a
 face centered cubic supercell.

 Subroutine GETGRP returns: Found 24 space group operations
 (whereof 24 operations were pure point group operations)
 out of a pool of 48 trial point group operations.

The static configuration has the point symmetry T_d .

Analysis of symmetry for dynamics (positions and initial velocities):
 Subroutine PRICEL returns:
 Original cell was already a primitive cell.

 Routine SETGRP: Setting up the symmetry group for a
 face centered cubic supercell.

 Subroutine GETGRP returns: Found 24 space group operations
 (whereof 24 operations were pure point group operations)
 out of a pool of 48 trial point group operations.

The dynamic configuration has the point symmetry T_d .

 Subroutine INISYM returns: Found 24 space group operations
 (whereof 24 operations are pure point group operations),
 and found     1 'primitive' translations

 KPOINTS: InP

Automatic generation of k-mesh.
 generate k-points for:    9    9    9
Space group operators:
 irot       det(A)        alpha          n_x          n_y          n_z        tau_x        tau_y        tau_z
    1     1.000000     0.000001     1.000000     0.000000     0.000000     0.000000     0.000000     0.000000
    2     1.000000   120.000000    -0.577350    -0.577350    -0.577350     0.000000     0.000000     0.000000
    3     1.000000   120.000000     0.577350     0.577350     0.577350     0.000000     0.000000     0.000000
    4    -1.000000    90.000000     0.000000     0.000000    -1.000000     0.000000     0.000000     0.000000
    5    -1.000000   180.000000     0.000000     0.707107     0.707107     0.000000     0.000000     0.000000
    6    -1.000000    90.000000    -0.000000     1.000000     0.000000     0.000000     0.000000     0.000000
    7     1.000000   180.000000    -0.000000     0.000000     1.000000     0.000000     0.000000     0.000000
    8     1.000000   120.000000    -0.577350     0.577350     0.577350     0.000000     0.000000     0.000000
    9     1.000000   120.000000    -0.577350     0.577350    -0.577350     0.000000     0.000000     0.000000
   10    -1.000000    90.000000     0.000000     0.000000     1.000000     0.000000     0.000000     0.000000
   11    -1.000000    90.000000    -1.000000     0.000000     0.000000     0.000000     0.000000     0.000000
   12    -1.000000   180.000000     0.707107     0.000000     0.707107     0.000000     0.000000     0.000000
   13     1.000000   120.000000     0.577350    -0.577350     0.577350     0.000000     0.000000     0.000000
   14     1.000000   120.000000    -0.577350    -0.577350     0.577350     0.000000     0.000000     0.000000
   15     1.000000   180.000000     1.000000     0.000000     0.000000     0.000000     0.000000     0.000000
   16    -1.000000    90.000000     0.000000    -1.000000    -0.000000     0.000000     0.000000     0.000000
   17    -1.000000   180.000000     0.707107     0.707107    -0.000000     0.000000     0.000000     0.000000
   18    -1.000000    90.000000     1.000000     0.000000     0.000000     0.000000     0.000000     0.000000
   19     1.000000   120.000000     0.577350    -0.577350    -0.577350     0.000000     0.000000     0.000000
   20     1.000000   180.000000    -0.000000    -1.000000    -0.000000     0.000000     0.000000     0.000000
   21     1.000000   120.000000     0.577350     0.577350    -0.577350     0.000000     0.000000     0.000000
   22    -1.000000   180.000000     0.000000    -0.707107     0.707107     0.000000     0.000000     0.000000
   23    -1.000000   180.000000     0.707107    -0.707107     0.000000     0.000000     0.000000     0.000000
   24    -1.000000   180.000000    -0.707107     0.000000     0.707107     0.000000     0.000000     0.000000

 Subroutine IBZKPT returns following result:

 Found     35 irreducible k-points:

 Following reciprocal coordinates:
            Coordinates               Weight
  0.000000  0.000000  0.000000      1.000000
  0.111111 -0.000000  0.000000      8.000000
  0.222222 -0.000000  0.000000      8.000000
  0.333333 -0.000000 -0.000000      8.000000
  0.444444 -0.000000  0.000000      8.000000
  0.111111  0.111111 -0.000000      6.000000
  0.222222  0.111111 -0.000000     24.000000
  0.333333  0.111111 -0.000000     24.000000
  0.444444  0.111111 -0.000000     24.000000
 -0.444444  0.111111  0.000000     24.000000
 -0.333333  0.111111  0.000000     24.000000
 -0.222222  0.111111 -0.000000     24.000000
 -0.111111  0.111111 -0.000000     12.000000
  0.222222  0.222222 -0.000000      6.000000
  0.333333  0.222222  0.000000     24.000000
  0.444444  0.222222  0.000000     24.000000
 -0.444444  0.222222  0.000000     24.000000
 -0.333333  0.222222  0.000000     24.000000
 -0.222222  0.222222  0.000000     12.000000
  0.333333  0.333333 -0.000000      6.000000
  0.444444  0.333333 -0.000000     24.000000
 -0.444444  0.333333 -0.000000     24.000000
 -0.333333  0.333333  0.000000     12.000000
  0.444444  0.444444 -0.000000      6.000000
 -0.444444  0.444444  0.000000     12.000000
  0.333333  0.222222  0.111111     24.000000
  0.444444  0.222222  0.111111     48.000000
 -0.444444  0.222222  0.111111     48.000000
  0.444444  0.333333  0.111111     24.000000
 -0.444444  0.333333  0.111111     48.000000
 -0.333333  0.333333  0.111111     48.000000
 -0.222222  0.333333  0.111111     24.000000
 -0.444444  0.444444  0.111111     24.000000
 -0.333333  0.444444  0.111111     24.000000
 -0.333333  0.444444  0.222222     24.000000

 Following cartesian coordinates:
            Coordinates               Weight
  0.000000  0.000000  0.000000      1.000000
 -0.018517  0.018517  0.018517      8.000000
 -0.037035  0.037035  0.037035      8.000000
 -0.055552  0.055552  0.055552      8.000000
 -0.074069  0.074069  0.074069      8.000000
  0.000000  0.000000  0.037035      6.000000
 -0.018517  0.018517  0.055552     24.000000
 -0.037035  0.037035  0.074069     24.000000
 -0.055552  0.055552  0.092586     24.000000
  0.092586 -0.092586 -0.055552     24.000000
  0.074069 -0.074069 -0.037035     24.000000
  0.055552 -0.055552 -0.018517     24.000000
  0.037035 -0.037035  0.000000     12.000000
 -0.000000  0.000000  0.074069      6.000000
 -0.018517  0.018517  0.092586     24.000000
 -0.037035  0.037035  0.111104     24.000000
  0.111104 -0.111104 -0.037035     24.000000
  0.092586 -0.092586 -0.018517     24.000000
  0.074069 -0.074069  0.000000     12.000000
  0.000000 -0.000000  0.111104      6.000000
 -0.018517  0.018517  0.129621     24.000000
  0.129621 -0.129621 -0.018517     24.000000
  0.111104 -0.111104 -0.000000     12.000000
 -0.000000  0.000000  0.148138      6.000000
  0.148138 -0.148138  0.000000     12.000000
  0.000000  0.037035  0.074069     24.000000
 -0.018517  0.055552  0.092586     48.000000
  0.129621 -0.092586 -0.055552     48.000000
 -0.000000  0.037035  0.111104     24.000000
  0.148138 -0.111104 -0.037035     48.000000
  0.129621 -0.092586 -0.018517     48.000000
  0.111104 -0.074069  0.000000     24.000000
  0.166656 -0.129621 -0.018517     24.000000
  0.148138 -0.111104  0.000000     24.000000
  0.166656 -0.092586 -0.018517     24.000000

 SYSTEM =  InP
 POSCAR =  InP

 Startparameter for this run:
   NWRITE =      1    write-flag & timer
   PREC   = accura    normal or accurate (medium, high low for compatibility)
   ISTART =      0    job   : 0-new  1-cont  2-samecut
   ICHARG =      2    charge: 1-file 2-atom 10-const
   ISPIN  =      1    spin polarized calculation?
   LNONCOLLINEAR =      F non collinear calculations
   LSORBIT =      F    spin-orbit coupling
   INIWAV =      1    electr: 0-lowe 1-rand  2-diag
   LASPH  =      T    aspherical Exc in radial PAW
   METAGGA=      F    non-selfconsistent MetaGGA calc.

 Electronic Relaxation 1
   ENCUT  =  510.0 eV  37.48 Ry    6.12 a.u.   7.81  7.81  7.81*2*pi/ulx,y,z
   ENINI  =  510.0     initial cutoff
   ENAUG  =  342.9 eV  augmentation charge cutoff
   NELM   =    100;   NELMIN=  6; NELMDL= -8     # of ELM steps
   EDIFF  = 0.1E-06   stopping-criterion for ELM
   LREAL  =      F    real-space projection
   NLSPLINE    = F    spline interpolate recip. space projectors
   LCOMPAT=      F    compatible to vasp.4.4
   GGA_COMPAT  = T    GGA compatible to vasp.4.4-vasp.4.6
   LMAXPAW     = -100 max onsite density
   LMAXMIX     =    6 max onsite mixed and CHGCAR
   VOSKOWN=      0    Vosko Wilk Nusair interpolation
   ROPT   =    0.00000   0.00000
 Ionic relaxation
   EDIFFG = -.1E-02   stopping-criterion for IOM
   NSW    =    100    number of steps for IOM
   NBLOCK =      1;   KBLOCK =    100    inner block; outer block
   IBRION =      2    ionic relax: 0-MD 1-quasi-New 2-CG
   NFREE  =      1    steps in history (QN), initial steepest desc. (CG)
   ISIF   =      3    stress and relaxation
   IWAVPR =     11    prediction:  0-non 1-charg 2-wave 3-comb
   ISYM   =      2    0-nonsym 1-usesym 2-fastsym
   LCORR  =      T    Harris-Foulkes like correction to forces

   POTIM  = 0.5000    time-step for ionic-motion
   TEIN   =    0.0    initial temperature
   TEBEG  =    0.0;   TEEND  =   0.0 temperature during run
   SMASS  =  -3.00    Nose mass-parameter (am)
   estimated Nose-frequenzy (Omega)   =  0.10E-29 period in steps =****** mass=  -0.411E-27a.u.
   SCALEE = 1.0000    scale energy and forces
   NPACO  =    256;   APACO  = 16.0  distance and # of slots for P.C.
   PSTRESS=    0.0 pullay stress

  Mass of Ions in am
   POMASS = 114.82 30.97
  Ionic Valenz
   ZVAL   =   3.00  5.00
  Atomic Wigner-Seitz radii
  virtual crystal weights
   VCA    =   1.00  1.00
   NELECT =       8.0000    total number of electrons
   NUPDOWN=      -1.0000    fix difference up-down

 DOS related values:
   EMIN   =  10.00;   EMAX   =-10.00  energy-range for DOS
   EFERMI =   0.00
   ISMEAR =     0;   SIGMA  =   0.01  broadening in eV -4-tet -1-fermi 0-gaus

 Electronic relaxation 2 (details)
   IALGO  =     38    algorithm
   LDIAG  =      T    sub-space diagonalisation (order eigenvalues)
[...]
   IDIPOL =      0    1-x, 2-y, 3-z, 4-all directions
   EPSILON=  1.0000000 bulk dielectric constant

 Exchange correlation treatment:
   GGA     =    --    GGA type
   VOSKOWN=      0    Vosko Wilk Nusair interpolation
   LHFCALC =     F    Hartree Fock is set to
   LHFONE  =     F    Hartree Fock one center treatment
   AEXX    =    0.0000 exact exchange contribution

 Linear response parameters
   LEPSILON=     F    determine dielectric tensor
   LRPA    =     F    only Hartree local field effects (RPA)
   LNABLA  =     F    use nabla operator in PAW spheres
   LVEL    =     F    velocity operator in full k-point grid
   LINTERFAST=   F  fast interpolation
   KINTER  =     0    interpolate to denser k-point grid
   CSHIFT  =0.1000    complex shift for real part using Kramers Kronig
   OMEGAMAX=  -1.0    maximum frequency
   DEG_THRESHOLD= 0.2000000E-02 threshold for treating states as degnerate
   RTIME   =   -0.100 relaxation time in fs
  (WPLASMAI=    0.000 imaginary part of plasma frequency in eV, 0.658/RTIME)
   DFIELD  = 0.0000000 0.0000000 0.0000000 field for delta impulse in time

 Orbital magnetization related:
   ORBITALMAG=     F  switch on orbital magnetization
   LCHIMAG   =     F  perturbation theory with respect to B field
   DQ        =  0.001000  dq finite difference perturbation B field
   LLRAUG    =     F  two centre corrections for induced B field

 conjugate gradient relaxation of ions
 charge density and potential will be updated during run
 non-spin polarized calculation
 Variant of blocked Davidson
 Davidson routine will perform the subspace rotation
 perform sub-space diagonalisation
    after iterative eigenvector-optimisation
 modified Broyden-mixing scheme, WC =      100.0
 initial mixing is a Kerker type mixing with AMIX =  0.2000 and BMIX =      0.0010
 Hartree-type preconditioning will be used
 using additional bands            4
 reciprocal scheme for non local part
 use partial core corrections
 calculate Harris-corrections to forces
   (improved forces if not selfconsistent)
 use gradient corrections
 use of overlap-Matrix (Vanderbilt PP)
 Gauss-broadening in eV      SIGMA  =   0.01

  energy-cutoff  :      510.00
  volume of cell :       54.01
      direct lattice vectors                 reciprocal lattice vectors
     0.000000000  3.000199939  3.000199939    -0.166655560  0.166655560  0.166655560
     3.000199939  0.000000000  3.000199939     0.166655560 -0.166655560  0.166655560
     3.000199939  3.000199939  0.000000000     0.166655560  0.166655560 -0.166655560

  length of vectors
     4.242923444  4.242923444  4.242923444     0.288655897  0.288655897  0.288655897

 k-points in units of 2pi/SCALE and weight: InP
   0.00000000  0.00000000  0.00000000       0.001
  -0.01851728  0.01851728  0.01851728       0.011
  -0.03703457  0.03703457  0.03703457       0.011
  -0.05555185  0.05555185  0.05555185       0.011
  -0.07406914  0.07406914  0.07406914       0.011
  -0.00000000  0.00000000  0.03703457       0.008
  -0.01851728  0.01851728  0.05555185       0.033
  -0.03703457  0.03703457  0.07406914       0.033
  -0.05555185  0.05555185  0.09258642       0.033
   0.09258642 -0.09258642 -0.05555185       0.033
   0.07406914 -0.07406914 -0.03703457       0.033
   0.05555185 -0.05555185 -0.01851728       0.033
   0.03703457 -0.03703457 -0.00000000       0.016
  -0.00000000  0.00000000  0.07406914       0.008
  -0.01851728  0.01851728  0.09258642       0.033
  -0.03703457  0.03703457  0.11110371       0.033
   0.11110371 -0.11110371 -0.03703457       0.033
   0.09258642 -0.09258642 -0.01851728       0.033
   0.07406914 -0.07406914 -0.00000000       0.016
   0.00000000 -0.00000000  0.11110371       0.008
  -0.01851728  0.01851728  0.12962099       0.033
   0.12962099 -0.12962099 -0.01851728       0.033
   0.11110371 -0.11110371 -0.00000000       0.016
  -0.00000000  0.00000000  0.14813828       0.008
   0.14813828 -0.14813828 -0.00000000       0.016
   0.00000000  0.03703457  0.07406914       0.033
  -0.01851728  0.05555185  0.09258642       0.066
   0.12962099 -0.09258642 -0.05555185       0.066
  -0.00000000  0.03703457  0.11110371       0.033
   0.14813828 -0.11110371 -0.03703457       0.066
   0.12962099 -0.09258642 -0.01851728       0.066
   0.11110371 -0.07406914  0.00000000       0.033
   0.16665556 -0.12962099 -0.01851728       0.033
   0.14813828 -0.11110371  0.00000000       0.033
   0.16665556 -0.09258642 -0.01851728       0.033

 k-points in reciprocal lattice and weights: InP
   0.00000000  0.00000000  0.00000000       0.001
   0.11111111 -0.00000000  0.00000000       0.011
   0.22222222 -0.00000000  0.00000000       0.011
   0.33333333 -0.00000000 -0.00000000       0.011
   0.44444444 -0.00000000  0.00000000       0.011
   0.11111111  0.11111111 -0.00000000       0.008
   0.22222222  0.11111111 -0.00000000       0.033
   0.33333333  0.11111111 -0.00000000       0.033
   0.44444444  0.11111111 -0.00000000       0.033
  -0.44444444  0.11111111  0.00000000       0.033
  -0.33333333  0.11111111  0.00000000       0.033
  -0.22222222  0.11111111 -0.00000000       0.033
  -0.11111111  0.11111111 -0.00000000       0.016
   0.22222222  0.22222222 -0.00000000       0.008
   0.33333333  0.22222222  0.00000000       0.033
   0.44444444  0.22222222  0.00000000       0.033
  -0.44444444  0.22222222  0.00000000       0.033
  -0.33333333  0.22222222  0.00000000       0.033
  -0.22222222  0.22222222  0.00000000       0.016
   0.33333333  0.33333333 -0.00000000       0.008
   0.44444444  0.33333333 -0.00000000       0.033
  -0.44444444  0.33333333 -0.00000000       0.033
  -0.33333333  0.33333333  0.00000000       0.016
   0.44444444  0.44444444 -0.00000000       0.008
  -0.44444444  0.44444444  0.00000000       0.016
   0.33333333  0.22222222  0.11111111       0.033
   0.44444444  0.22222222  0.11111111       0.066
  -0.44444444  0.22222222  0.11111111       0.066
   0.44444444  0.33333333  0.11111111       0.033
  -0.44444444  0.33333333  0.11111111       0.066
  -0.33333333  0.33333333  0.11111111       0.066
  -0.22222222  0.33333333  0.11111111       0.033
  -0.44444444  0.44444444  0.11111111       0.033
  -0.33333333  0.44444444  0.11111111       0.033
  -0.33333333  0.44444444  0.22222222       0.033

 position of ions in fractional coordinates (direct lattice)
   0.00000000  0.00000000  0.00000000
   0.25000000  0.25000000  0.25000000

 position of ions in cartesian coordinates  (Angst):
   0.00000000  0.00000000  0.00000000
   1.50009997  1.50009997  1.50009997

 k-point  1 :   0.0000 0.0000 0.0000  plane waves:    1411
 k-point  2 :   0.1111-0.0000 0.0000  plane waves:    1423
 k-point  3 :   0.2222-0.0000 0.0000  plane waves:    1402
 k-point  4 :   0.3333-0.0000-0.0000  plane waves:    1411
 k-point  5 :   0.4444-0.0000 0.0000  plane waves:    1419
 k-point  6 :   0.1111 0.1111-0.0000  plane waves:    1419
 k-point  7 :   0.2222 0.1111-0.0000  plane waves:    1412
 k-point  8 :   0.3333 0.1111-0.0000  plane waves:    1404
 k-point  9 :   0.4444 0.1111-0.0000  plane waves:    1424
 k-point 10 :  -0.4444 0.1111 0.0000  plane waves:    1415
 k-point 11 :  -0.3333 0.1111 0.0000  plane waves:    1416
 k-point 12 :  -0.2222 0.1111-0.0000  plane waves:    1401
 k-point 13 :  -0.1111 0.1111-0.0000  plane waves:    1400
 k-point 14 :   0.2222 0.2222-0.0000  plane waves:    1403
 k-point 15 :   0.3333 0.2222 0.0000  plane waves:    1407
 k-point 16 :   0.4444 0.2222 0.0000  plane waves:    1409
 k-point 17 :  -0.4444 0.2222 0.0000  plane waves:    1420
 k-point 18 :  -0.3333 0.2222 0.0000  plane waves:    1411
 k-point 19 :  -0.2222 0.2222 0.0000  plane waves:    1404
 k-point 20 :   0.3333 0.3333-0.0000  plane waves:    1403
 k-point 21 :   0.4444 0.3333-0.0000  plane waves:    1403
 k-point 22 :  -0.4444 0.3333-0.0000  plane waves:    1411
 k-point 23 :  -0.3333 0.3333 0.0000  plane waves:    1420
 k-point 24 :   0.4444 0.4444-0.0000  plane waves:    1399
 k-point 25 :  -0.4444 0.4444 0.0000  plane waves:    1410
 k-point 26 :   0.3333 0.2222 0.1111  plane waves:    1409
 k-point 27 :   0.4444 0.2222 0.1111  plane waves:    1407
 k-point 28 :  -0.4444 0.2222 0.1111  plane waves:    1422
 k-point 29 :   0.4444 0.3333 0.1111  plane waves:    1411
 k-point 30 :  -0.4444 0.3333 0.1111  plane waves:    1413
 k-point 31 :  -0.3333 0.3333 0.1111  plane waves:    1418
 k-point 32 :  -0.2222 0.3333 0.1111  plane waves:    1415
 k-point 33 :  -0.4444 0.4444 0.1111  plane waves:    1412
 k-point 34 :  -0.3333 0.4444 0.1111  plane waves:    1414
 k-point 35 :  -0.3333 0.4444 0.2222  plane waves:    1415

 maximum and minimum number of plane-waves per node :       293      266

 maximum number of plane-waves:      1424
 maximum index in each direction:
   IXMAX=    8   IYMAX=    7   IZMAX=    7
   IXMIN=   -8   IYMIN=   -8   IZMIN=   -8

 parallel 3D FFT for wavefunctions:
    minimum data exchange during FFTs selected (reduces bandwidth)
 parallel 3D FFT for charge:
    minimum data exchange during FFTs selected (reduces bandwidth)

 Broyden mixing: mesh for mixing (old mesh)
   NGX = 15   NGY = 15   NGZ = 15
  (NGX  = 64   NGY  = 64   NGZ  = 64)
  gives a total of   3375 points

 initial charge density was supplied:
 charge density of overlapping atoms calculated
 number of electron       8.0000000 magnetization
 keeping initial charge density in first step

 Maximum index for augmentation-charges        54694 (set IRDMAX)

 First call to EWALD:  gamma=   0.469
 Maximum number of real-space cells 3x 3x 3
 Maximum number of reciprocal cells 3x 3x 3

--------------------------------------- Iteration      1(   1)  ---------------------------------------

 eigenvalue-minimisations  :   560
 total energy-change (2. order) : 0.1911734E+02  (-0.3156911E+03)
 number of electron       8.0000000 magnetization
 augmentation part        8.0000000 magnetization

 Free energy of the ion-electron system (eV)
  alpha Z        PSCENC =         2.81432727
  Ewald energy   TEWEN  =      -215.91448843
  -Hartree energ DENC   =       -25.44751028
  -exchange      EXHF   =         0.00000000
  -V(xc)+E(xc)   XCENC  =       -52.89414415
  PAW double counting   =       233.98277405     -166.44191234
  entropy T*S    EENTRO =        -0.00008383
  eigenvalues    EBANDS =        13.18574572
  atomic energy  EATOM  =       229.83262962
  Solvation  Ediel_sol  =         0.00000000
  free energy    TOTEN  =        19.11733764 eV

  energy without entropy =       19.11742147  energy(sigma->0) =       19.11737956

[...]

 eigenvalue-minimisations  :   840
 total energy-change (2. order) :-0.2701861E+02  (-0.2646272E+02)
 number of electron       8.0000000 magnetization
 augmentation part        8.0000000 magnetization

[...]

 Broyden mixing:
  rms(total) = 0.53781E+00    rms(broyden)= 0.53781E+00
  rms(prec ) = 0.10999E+01
  weight for this iteration     100.00

[...]

 eigenvalues of (default mixing * dielectric matrix)
  average eigenvalue GAMMA=   3.4222
  3.4222

[...]

 eigenvalue-minimisations  :   672
 total energy-change (2. order) :-0.1188661E-04  (-0.2827381E-04)
 number of electron       8.0000000 magnetization
 augmentation part       -1.2000007 magnetization

[...]

 Broyden mixing:
  rms(total) = 0.28061E-02    rms(broyden)= 0.28061E-02
  rms(prec ) = 0.28760E-02
  weight for this iteration     100.00

 eigenvalues of (default mixing * dielectric matrix)
  average eigenvalue GAMMA=   2.6864
  5.2576  5.2576  4.8266  2.0861  1.1104  0.9597  0.9964  0.9964

[...]

--------------------------------------- Iteration      1(  17)  ---------------------------------------

 eigenvalue-minimisations  :   648
 total energy-change (2. order) : 0.8472892E-07  (-0.5860697E-07)
 number of electron       8.0000000 magnetization
 augmentation part       -1.2000961 magnetization

 Free energy of the ion-electron system (eV)
  alpha Z        PSCENC =         2.81432727
  Ewald energy   TEWEN  =      -215.91448843
  -Hartree energ DENC   =       -30.64203944
  -exchange      EXHF   =         0.00000000
  -V(xc)+E(xc)   XCENC  =       -52.02427495
  PAW double counting   =       705.59337021     -638.53959972
  entropy T*S    EENTRO =        -0.00000000
  eigenvalues    EBANDS =        -9.46391030
  atomic energy  EATOM  =       229.83262962
  Solvation  Ediel_sol  =         0.00000000
  free energy    TOTEN  =        -8.34398573 eV

  energy without entropy =       -8.34398573  energy(sigma->0) =       -8.34398573

 average (electrostatic) potential at core
  the test charge radii are     1.4837  0.9587
  (the norm of the test charge is              1.0000)
       1 -38.8063       2 -84.6036

 E-fermi :   3.4085     XC(G=0):  -8.7394     alpha+bet : -9.1268

 k-point     1 :       0.0000    0.0000    0.0000
  band No.  band energies     occupation
      1      -7.8127      2.00000
      2       3.2241      2.00000
      3       3.2241      2.00000
      4       3.2241      2.00000
      5       3.6009      0.00000
      6       7.3481      0.00000
      7       7.3481      0.00000
      8       7.3481      0.00000

[...]

 k-point    35 :      -0.3333    0.4444    0.2222
  band No.  band energies     occupation
      1      -5.9323      2.00000
      2      -2.0100      2.00000
      3       0.4298      2.00000
      4       0.9155      2.00000
      5       7.1495      0.00000
      6       7.4167      0.00000
      7       8.5408      0.00000
      8      10.0278      0.00000

 soft charge-density along one line, spin component           1
         0         1         2         3         4         5         6         7         8         9
 total charge-density along one line

------------------------ aborting loop because EDIFF is reached ----------------------------------------

 total charge

# of ion       s       p       d       tot
    1        1.180   1.357   0.213   2.750
    2        1.038   1.460   0.000   2.498
tot          2.218   2.816   0.213   5.248

  FORCE on cell =-STRESS in cart. coord.  units (eV):
  Direction    XX          YY          ZZ          XY          YZ          ZX
  Alpha Z     2.81433     2.81433     2.81433
  Ewald     -71.97153   -71.97153   -71.97153    -0.00000    -0.00000     0.00000
  Hartree    10.21378    10.21378    10.21378     0.00000     0.00000     0.00000
  E(xc)     -29.07331   -29.07331   -29.07331    -0.00000    -0.00000    -0.00000
  Local     -44.85367   -44.85367   -44.85367     0.00000     0.00000     0.00000
  n-local    87.39517    88.46248    83.52084     2.03594    -1.30925     0.62741
  augment   -17.38908   -17.38908   -17.38908    -0.00000    -0.00000    -0.00000
  Kinetic    65.68454    65.21141    60.50087     3.75499    -1.68735     1.25292
  Fock        0.00000     0.00000     0.00000     0.00000     0.00000     0.00000
  Total      -0.00103    -0.00103    -0.00103     0.00000    -0.00000     0.00000
  in kB      -0.03070    -0.03070    -0.03070     0.00000    -0.00000     0.00000

 VOLUME and BASIS-vectors are now :
  energy-cutoff  :      510.00
  volume of cell :       54.01
      direct lattice vectors                 reciprocal lattice vectors
     0.000000000  3.000199939  3.000199939    -0.166655560  0.166655560  0.166655560
     3.000199939  0.000000000  3.000199939     0.166655560 -0.166655560  0.166655560
     3.000199939  3.000199939  0.000000000     0.166655560  0.166655560 -0.166655560

  length of vectors
     4.242923444  4.242923444  4.242923444     0.288655897  0.288655897  0.288655897

 FORCES acting on ions
    electron-ion (+dipol)            ewald-force                    non-local-force                 convergence-correction
   -.111E-07 -.111E-07 -.117E-07   -.111E-14 0.136E-14 -.770E-15   -.149E-16 -.149E-16 -.237E-16   -.498E-10 -.498E-10 -.498E-10
   0.419E-08 0.419E-08 0.476E-08   0.982E-15 -.131E-14 0.106E-14   -.160E-15 -.118E-15 -.563E-16   -.234E-09 -.234E-09 -.234E-09
   -.694E-08 -.694E-08 -.695E-08   -.125E-15 0.489E-16 0.292E-15   -.175E-15 -.133E-15 -.800E-16   -.284E-09 -.284E-09 -.284E-09

 POSITION                                       TOTAL-FORCE (eV/Angst)
      0.00000      0.00000      0.00000         0.000000      0.000000      0.000000
      1.50010      1.50010      1.50010        -0.000000     -0.000000     -0.000000
    total drift:                               -0.000000     -0.000000     -0.000000

  FREE ENERGIE OF THE ION-ELECTRON SYSTEM (eV)
  free  energy   TOTEN  =        -8.34398573 eV

  energy  without entropy=       -8.34398573  energy(sigma->0) =       -8.34398573

 reached required accuracy - stopping structural energy minimisation

 total charge

# of ion       s       p       d       tot
    1        1.180   1.357   0.213   2.750
    2        1.038   1.460   0.000   2.498
tot          2.218   2.816   0.213   5.248