 vasp.5.4.4.18Apr17-6-g9f103f2a35 (build Apr 10 2018 17:34:00) complex

 executed on             LinuxIFC date 2018.10.04  08:20:44

 INCAR:
 POTCAR:    PAW_PBE Ga 08Apr2002
 POTCAR:    PAW_PBE Sb 06Sep2000
 POTCAR:    PAW_PBE Ga 08Apr2002

 POTCAR:    PAW_PBE Sb 06Sep2000

  PAW_PBE Ga 08Apr2002                  :
  PAW_PBE Sb 06Sep2000                  :

 POSCAR: GaSb
  positions in direct lattice
  velocities in cartesian coordinates
 exchange correlation table for  LEXCH =        8
   RHO(1)=    0.500       N(1)  =     2000
   RHO(2)=  100.500       N(2)  =     4000

 ion  position               nearest neighbor table
   1  0.000  0.000  0.000-   2 2.69   2 2.69   2 2.69   2 2.69
   2  0.250  0.250  0.250-   1 2.69   1 2.69   1 2.69   1 2.69

  LATTYP: Found a face centered cubic cell.
 ALAT       =     6.2231684958

  Lattice vectors:

 A1 = (   0.0000000000,   3.1115842479,   3.1115842479)
 A2 = (   3.1115842479,   0.0000000000,   3.1115842479)
 A3 = (   3.1115842479,   3.1115842479,   0.0000000000)

Analysis of symmetry for initial positions (statically):
 Subroutine PRICEL returns:
 Original cell was already a primitive cell.

 Routine SETGRP: Setting up the symmetry group for a
 face centered cubic supercell.

 Subroutine GETGRP returns: Found 24 space group operations
 (whereof 24 operations were pure point group operations)
 out of a pool of 48 trial point group operations.

The static configuration has the point symmetry T_d .

Analysis of symmetry for dynamics (positions and initial velocities):
 Subroutine PRICEL returns:
 Original cell was already a primitive cell.

 Routine SETGRP: Setting up the symmetry group for a
 face centered cubic supercell.

 Subroutine GETGRP returns: Found 24 space group operations
 (whereof 24 operations were pure point group operations)
 out of a pool of 48 trial point group operations.

The dynamic configuration has the point symmetry T_d .

 Subroutine INISYM returns: Found 24 space group operations
 (whereof 24 operations are pure point group operations),
 and found     1 'primitive' translations

 KPOINTS: GaSb

Automatic generation of k-mesh.
 generate k-points for:    8    8    8
Space group operators:
 irot       det(A)        alpha          n_x          n_y          n_z        tau_x        tau_y        tau_z
    1     1.000000     0.000000     1.000000     0.000000     0.000000     0.000000     0.000000     0.000000
    2     1.000000   120.000000    -0.577350    -0.577350    -0.577350     0.000000     0.000000     0.000000
    3     1.000000   120.000000     0.577350     0.577350     0.577350     0.000000     0.000000     0.000000
    4    -1.000000    90.000000    -0.000000     0.000000    -1.000000     0.000000     0.000000     0.000000
    5    -1.000000   180.000000    -0.000000    -0.707107    -0.707107     0.000000     0.000000     0.000000
    6    -1.000000    90.000000     0.000000     1.000000    -0.000000     0.000000     0.000000     0.000000
    7     1.000000   180.000000    -0.000000    -0.000000    -1.000000     0.000000     0.000000     0.000000
    8     1.000000   120.000000    -0.577350     0.577350     0.577350     0.000000     0.000000     0.000000
    9     1.000000   120.000000    -0.577350     0.577350    -0.577350     0.000000     0.000000     0.000000
   10    -1.000000    90.000000    -0.000000     0.000000     1.000000     0.000000     0.000000     0.000000
   11    -1.000000    90.000000    -1.000000     0.000000     0.000000     0.000000     0.000000     0.000000
   12    -1.000000   180.000000     0.707107     0.000000     0.707107     0.000000     0.000000     0.000000
   13     1.000000   120.000000     0.577350    -0.577350     0.577350     0.000000     0.000000     0.000000
   14     1.000000   120.000000    -0.577350    -0.577350     0.577350     0.000000     0.000000     0.000000
   15     1.000000   180.000000     1.000000     0.000000     0.000000     0.000000     0.000000     0.000000
   16    -1.000000    90.000000    -0.000000    -1.000000     0.000000     0.000000     0.000000     0.000000
   17    -1.000000   180.000000     0.707107     0.707107    -0.000000     0.000000     0.000000     0.000000
   18    -1.000000    90.000000     1.000000     0.000000    -0.000000     0.000000     0.000000     0.000000
   19     1.000000   120.000000     0.577350    -0.577350    -0.577350     0.000000     0.000000     0.000000
   20     1.000000   180.000000     0.000000     1.000000     0.000000     0.000000     0.000000     0.000000
   21     1.000000   120.000000     0.577350     0.577350    -0.577350     0.000000     0.000000     0.000000
   22    -1.000000   180.000000     0.000000     0.707107    -0.707107     0.000000     0.000000     0.000000
   23    -1.000000   180.000000     0.707107    -0.707107     0.000000     0.000000     0.000000     0.000000
   24    -1.000000   180.000000    -0.707107     0.000000     0.707107     0.000000     0.000000     0.000000

 Subroutine IBZKPT returns following result:

 Found     29 irreducible k-points:

 Following reciprocal coordinates:
            Coordinates               Weight
  0.000000  0.000000  0.000000      1.000000
  0.125000  0.000000 -0.000000      8.000000
  0.250000  0.000000 -0.000000      8.000000
  0.375000 -0.000000 -0.000000      8.000000
  0.500000  0.000000 -0.000000      4.000000
  0.125000  0.125000  0.000000      6.000000
  0.250000  0.125000  0.000000     24.000000
  0.375000  0.125000 -0.000000     24.000000
  0.500000  0.125000  0.000000     24.000000
 -0.375000  0.125000  0.000000     24.000000
 -0.250000  0.125000 -0.000000     24.000000
 -0.125000  0.125000  0.000000     12.000000
  0.250000  0.250000  0.000000      6.000000
  0.375000  0.250000  0.000000     24.000000
  0.500000  0.250000  0.000000     24.000000
 -0.375000  0.250000 -0.000000     24.000000
 -0.250000  0.250000  0.000000     12.000000
  0.375000  0.375000  0.000000      6.000000
  0.500000  0.375000  0.000000     24.000000
 -0.375000  0.375000 -0.000000     12.000000
  0.500000  0.500000  0.000000      3.000000
  0.375000  0.250000  0.125000     24.000000
  0.500000  0.250000  0.125000     48.000000
 -0.375000  0.250000  0.125000     24.000000
  0.500000  0.375000  0.125000     24.000000
 -0.375000  0.375000  0.125000     48.000000
 -0.250000  0.375000  0.125000     24.000000
 -0.375000  0.500000  0.125000     12.000000
 -0.250000  0.500000  0.250000      6.000000

 Following cartesian coordinates:
            Coordinates               Weight
  0.000000  0.000000  0.000000      1.000000
 -0.020086  0.020086  0.020086      8.000000
 -0.040172  0.040172  0.040172      8.000000
 -0.060259  0.060259  0.060259      8.000000
 -0.080345  0.080345  0.080345      4.000000
  0.000000  0.000000  0.040172      6.000000
 -0.020086  0.020086  0.060259     24.000000
 -0.040172  0.040172  0.080345     24.000000
 -0.060259  0.060259  0.100431     24.000000
  0.080345 -0.080345 -0.040172     24.000000
  0.060259 -0.060259 -0.020086     24.000000
  0.040172 -0.040172  0.000000     12.000000
  0.000000  0.000000  0.080345      6.000000
 -0.020086  0.020086  0.100431     24.000000
 -0.040172  0.040172  0.120517     24.000000
  0.100431 -0.100431 -0.020086     24.000000
  0.080345 -0.080345  0.000000     12.000000
  0.000000  0.000000  0.120517      6.000000
 -0.020086  0.020086  0.140604     24.000000
  0.120517 -0.120517  0.000000     12.000000
  0.000000  0.000000  0.160690      3.000000
  0.000000  0.040172  0.080345     24.000000
 -0.020086  0.060259  0.100431     48.000000
  0.120517 -0.080345 -0.040172     24.000000
  0.000000  0.040172  0.120517     24.000000
  0.140604 -0.100431 -0.020086     48.000000
  0.120517 -0.080345  0.000000     24.000000
  0.160690 -0.120517 -0.000000     12.000000
  0.160690 -0.080345  0.000000      6.000000

 SYSTEM =  GaSb
 POSCAR =  GaSb

 Startparameter for this run:
   NWRITE =      1    write-flag & timer
   PREC   = accura    normal or accurate (medium, high low for compatibility)
   ISTART =      0    job   : 0-new  1-cont  2-samecut
   ICHARG =      2    charge: 1-file 2-atom 10-const
   ISPIN  =      1    spin polarized calculation?
   LNONCOLLINEAR =      F non collinear calculations
   LSORBIT =      F    spin-orbit coupling
   INIWAV =      1    electr: 0-lowe 1-rand  2-diag
   LASPH  =      T    aspherical Exc in radial PAW
   METAGGA=      F    non-selfconsistent MetaGGA calc.

 Electronic Relaxation 1
   ENCUT  =  244.0 eV  17.93 Ry    4.23 a.u.   5.60  5.60  5.60*2*pi/ulx,y,z
   ENINI  =  244.0     initial cutoff
   ENAUG  =  380.5 eV  augmentation charge cutoff
   NELM   =    100;   NELMIN=  6; NELMDL= -8     # of ELM steps
   EDIFF  = 0.1E-06   stopping-criterion for ELM
   LREAL  =      F    real-space projection
   NLSPLINE    = F    spline interpolate recip. space projectors
   LCOMPAT=      F    compatible to vasp.4.4
   GGA_COMPAT  = T    GGA compatible to vasp.4.4-vasp.4.6
   LMAXPAW     = -100 max onsite density
   LMAXMIX     =    6 max onsite mixed and CHGCAR
   VOSKOWN=      0    Vosko Wilk Nusair interpolation
   ROPT   =    0.00000   0.00000
 Ionic relaxation
   EDIFFG = -.1E-02   stopping-criterion for IOM
   NSW    =    100    number of steps for IOM
   NBLOCK =      1;   KBLOCK =    100    inner block; outer block
   IBRION =      2    ionic relax: 0-MD 1-quasi-New 2-CG
   NFREE  =      1    steps in history (QN), initial steepest desc. (CG)
   ISIF   =      3    stress and relaxation
   IWAVPR =     11    prediction:  0-non 1-charg 2-wave 3-comb
   ISYM   =      2    0-nonsym 1-usesym 2-fastsym
   LCORR  =      T    Harris-Foulkes like correction to forces

   POTIM  = 0.5000    time-step for ionic-motion
   TEIN   =    0.0    initial temperature
   TEBEG  =    0.0;   TEEND  =   0.0 temperature during run
   SMASS  =  -3.00    Nose mass-parameter (am)
   estimated Nose-frequenzy (Omega)   =  0.10E-29 period in steps =****** mass=  -0.443E-27a.u.
   SCALEE = 1.0000    scale energy and forces
   NPACO  =    256;   APACO  = 16.0  distance and # of slots for P.C.
   PSTRESS=    0.0 pullay stress

  Mass of Ions in am
   POMASS =  69.72121.75
  Ionic Valenz
   ZVAL   =   3.00  5.00
  Atomic Wigner-Seitz radii
  virtual crystal weights
   VCA    =   1.00  1.00
   NELECT =       8.0000    total number of electrons
   NUPDOWN=      -1.0000    fix difference up-down

 DOS related values:
   EMIN   =  10.00;   EMAX   =-10.00  energy-range for DOS
   EFERMI =   0.00
   ISMEAR =     0;   SIGMA  =   0.01  broadening in eV -4-tet -1-fermi 0-gaus

 Electronic relaxation 2 (details)
   IALGO  =     38    algorithm
   LDIAG  =      T    sub-space diagonalisation (order eigenvalues)
   LSUBROT=      F    optimize rotation matrix (better conditioning)
   TURBO    =      0    0=normal 1=particle mesh
   IRESTART =      0    0=no restart 2=restart with 2 vectors
   NREBOOT  =      0    no. of reboots
   NMIN     =      0    reboot dimension
   EREF     =   0.00    reference energy to select bands
   IMIX   =      4    mixing-type and parameters
     AMIX     =   0.20;   BMIX     =  0.00
     AMIX_MAG =   0.80;   BMIX_MAG =  0.00
     AMIN     =   0.10
     WC   =   100.;   INIMIX=   1;  MIXPRE=   1;  MAXMIX= -45

 Intra band minimization:
   WEIMIN = 0.0010     energy-eigenvalue tresh-hold
   EBREAK =  0.31E-08  absolut break condition
   DEPER  =   0.30     relativ break condition

   TIME   =   0.40     timestep for ELM

  volume/ion in A,a.u.               =      30.13       203.30
  Fermi-wavevector in a.u.,A,eV,Ry     =   0.835180  1.578261  9.490406  0.697525
  Thomas-Fermi vector in A             =   1.948695

 Write flags
   LWAVE        =      F    write WAVECAR
   LDOWNSAMPLE  =      F    k-point downsampling of WAVECAR
   LCHARG       =      F    write CHGCAR
   LVTOT        =      F    write LOCPOT, total local potential
   LVHAR        =      F    write LOCPOT, Hartree potential only
   LELF         =      F    write electronic localiz. function (ELF)
   LORBIT       =     10    0 simple, 1 ext, 2 COOP (PROOUT), +10 PAW based schemes

 Dipole corrections
   LMONO  =      F    monopole corrections only (constant potential shift)
   LDIPOL =      F    correct potential (dipole corrections)
   IDIPOL =      0    1-x, 2-y, 3-z, 4-all directions
   EPSILON=  1.0000000 bulk dielectric constant

 Exchange correlation treatment:
   GGA     =    --    GGA type
   VOSKOWN=      0    Vosko Wilk Nusair interpolation
   LHFCALC =     F    Hartree Fock is set to
   LHFONE  =     F    Hartree Fock one center treatment
   AEXX    =    0.0000 exact exchange contribution

 Linear response parameters
   LEPSILON=     F    determine dielectric tensor
   LRPA    =     F    only Hartree local field effects (RPA)
   LNABLA  =     F    use nabla operator in PAW spheres
   LVEL    =     F    velocity operator in full k-point grid
   LINTERFAST=   F  fast interpolation
   KINTER  =     0    interpolate to denser k-point grid
   CSHIFT  =0.1000    complex shift for real part using Kramers Kronig
   OMEGAMAX=  -1.0    maximum frequency
   DEG_THRESHOLD= 0.2000000E-02 threshold for treating states as degnerate
   RTIME   =   -0.100 relaxation time in fs
  (WPLASMAI=    0.000 imaginary part of plasma frequency in eV, 0.658/RTIME)
   DFIELD  = 0.0000000 0.0000000 0.0000000 field for delta impulse in time

 Orbital magnetization related:
   ORBITALMAG=     F  switch on orbital magnetization
   LCHIMAG   =     F  perturbation theory with respect to B field
   DQ        =  0.001000  dq finite difference perturbation B field
   LLRAUG    =     F  two centre corrections for induced B field

 conjugate gradient relaxation of ions
 charge density and potential will be updated during run
 non-spin polarized calculation
 Variant of blocked Davidson
 Davidson routine will perform the subspace rotation
 perform sub-space diagonalisation
    after iterative eigenvector-optimisation
 modified Broyden-mixing scheme, WC =      100.0
 initial mixing is a Kerker type mixing with AMIX =  0.2000 and BMIX =      0.0010
 Hartree-type preconditioning will be used
 using additional bands            4
 reciprocal scheme for non local part
 use partial core corrections
 calculate Harris-corrections to forces
   (improved forces if not selfconsistent)
 use gradient corrections
 use of overlap-Matrix (Vanderbilt PP)
 Gauss-broadening in eV      SIGMA  =   0.01

  energy-cutoff  :      244.00
  volume of cell :       60.25
      direct lattice vectors                 reciprocal lattice vectors
     0.000000000  3.111584248  3.111584248    -0.160689848  0.160689848  0.160689848
     3.111584248  0.000000000  3.111584248     0.160689848 -0.160689848  0.160689848
     3.111584248  3.111584248  0.000000000     0.160689848  0.160689848 -0.160689848

  length of vectors
     4.400444644  4.400444644  4.400444644     0.278322981  0.278322981  0.278322981

 k-points in units of 2pi/SCALE and weight: GaSb
   0.00000000  0.00000000  0.00000000       0.002
  -0.02008623  0.02008623  0.02008623       0.016
  -0.04017246  0.04017246  0.04017246       0.016
  -0.06025869  0.06025869  0.06025869       0.016
  -0.08034492  0.08034492  0.08034492       0.008
   0.00000000  0.00000000  0.04017246       0.012
  -0.02008623  0.02008623  0.06025869       0.047
  -0.04017246  0.04017246  0.08034492       0.047
  -0.06025869  0.06025869  0.10043116       0.047
   0.08034492 -0.08034492 -0.04017246       0.047
   0.06025869 -0.06025869 -0.02008623       0.047
   0.04017246 -0.04017246 -0.00000000       0.023
   0.00000000  0.00000000  0.08034492       0.012
  -0.02008623  0.02008623  0.10043116       0.047
  -0.04017246  0.04017246  0.12051739       0.047
   0.10043116 -0.10043116 -0.02008623       0.047
   0.08034492 -0.08034492 -0.00000000       0.023
   0.00000000  0.00000000  0.12051739       0.012
  -0.02008623  0.02008623  0.14060362       0.047
   0.12051739 -0.12051739  0.00000000       0.023
   0.00000000  0.00000000  0.16068985       0.006
   0.00000000  0.04017246  0.08034492       0.047
  -0.02008623  0.06025869  0.10043116       0.094
   0.12051739 -0.08034492 -0.04017246       0.047
   0.00000000  0.04017246  0.12051739       0.047
   0.14060362 -0.10043116 -0.02008623       0.094
   0.12051739 -0.08034492  0.00000000       0.047
   0.16068985 -0.12051739 -0.00000000       0.023
   0.16068985 -0.08034492  0.00000000       0.012

 k-points in reciprocal lattice and weights: GaSb
   0.00000000  0.00000000  0.00000000       0.002
   0.12500000  0.00000000 -0.00000000       0.016
   0.25000000  0.00000000 -0.00000000       0.016
   0.37500000 -0.00000000 -0.00000000       0.016
   0.50000000  0.00000000 -0.00000000       0.008
   0.12500000  0.12500000  0.00000000       0.012
   0.25000000  0.12500000  0.00000000       0.047
   0.37500000  0.12500000 -0.00000000       0.047
   0.50000000  0.12500000  0.00000000       0.047
  -0.37500000  0.12500000  0.00000000       0.047
  -0.25000000  0.12500000 -0.00000000       0.047
  -0.12500000  0.12500000  0.00000000       0.023
   0.25000000  0.25000000  0.00000000       0.012
   0.37500000  0.25000000  0.00000000       0.047
   0.50000000  0.25000000  0.00000000       0.047
  -0.37500000  0.25000000 -0.00000000       0.047
  -0.25000000  0.25000000  0.00000000       0.023
   0.37500000  0.37500000  0.00000000       0.012
   0.50000000  0.37500000  0.00000000       0.047
  -0.37500000  0.37500000 -0.00000000       0.023
   0.50000000  0.50000000  0.00000000       0.006
   0.37500000  0.25000000  0.12500000       0.047
   0.50000000  0.25000000  0.12500000       0.094
  -0.37500000  0.25000000  0.12500000       0.047
   0.50000000  0.37500000  0.12500000       0.047
  -0.37500000  0.37500000  0.12500000       0.094
  -0.25000000  0.37500000  0.12500000       0.047
  -0.37500000  0.50000000  0.12500000       0.023
  -0.25000000  0.50000000  0.25000000       0.012

 position of ions in fractional coordinates (direct lattice)
   0.00000000  0.00000000  0.00000000
   0.25000000  0.25000000  0.25000000

 position of ions in cartesian coordinates  (Angst):
   0.00000000  0.00000000  0.00000000
   1.55579212  1.55579212  1.55579212

 k-point  1 :   0.0000 0.0000 0.0000  plane waves:     531
 k-point  2 :   0.1250 0.0000-0.0000  plane waves:     534
 k-point  3 :   0.2500 0.0000-0.0000  plane waves:     525
 k-point  4 :   0.3750-0.0000-0.0000  plane waves:     522
 k-point  5 :   0.5000 0.0000-0.0000  plane waves:     544
 k-point  6 :   0.1250 0.1250 0.0000  plane waves:     532
 k-point  7 :   0.2500 0.1250 0.0000  plane waves:     529
 k-point  8 :   0.3750 0.1250-0.0000  plane waves:     522
 k-point  9 :   0.5000 0.1250 0.0000  plane waves:     526
 k-point 10 :  -0.3750 0.1250 0.0000  plane waves:     523
 k-point 11 :  -0.2500 0.1250-0.0000  plane waves:     524
 k-point 12 :  -0.1250 0.1250 0.0000  plane waves:     523
 k-point 13 :   0.2500 0.2500 0.0000  plane waves:     528
 k-point 14 :   0.3750 0.2500 0.0000  plane waves:     521
 k-point 15 :   0.5000 0.2500 0.0000  plane waves:     519
 k-point 16 :  -0.3750 0.2500-0.0000  plane waves:     524
 k-point 17 :  -0.2500 0.2500 0.0000  plane waves:     524
 k-point 18 :   0.3750 0.3750 0.0000  plane waves:     520
 k-point 19 :   0.5000 0.3750 0.0000  plane waves:     519
 k-point 20 :  -0.3750 0.3750-0.0000  plane waves:     512
 k-point 21 :   0.5000 0.5000 0.0000  plane waves:     524
 k-point 22 :   0.3750 0.2500 0.1250  plane waves:     528
 k-point 23 :   0.5000 0.2500 0.1250  plane waves:     523
 k-point 24 :  -0.3750 0.2500 0.1250  plane waves:     520
 k-point 25 :   0.5000 0.3750 0.1250  plane waves:     522
 k-point 26 :  -0.3750 0.3750 0.1250  plane waves:     517
 k-point 27 :  -0.2500 0.3750 0.1250  plane waves:     519
 k-point 28 :  -0.3750 0.5000 0.1250  plane waves:     512
 k-point 29 :  -0.2500 0.5000 0.2500  plane waves:     516

 maximum and minimum number of plane-waves per node :       115       95

 maximum number of plane-waves:       544
 maximum index in each direction:
   IXMAX=    5   IYMAX=    5   IZMAX=    5
   IXMIN=   -6   IYMIN=   -6   IZMIN=   -5

 parallel 3D FFT for wavefunctions:
    minimum data exchange during FFTs selected (reduces bandwidth)
 parallel 3D FFT for charge:
    minimum data exchange during FFTs selected (reduces bandwidth)

 Broyden mixing: mesh for mixing (old mesh)
   NGX = 11   NGY = 11   NGZ = 11
  (NGX  = 48   NGY  = 48   NGZ  = 48)
  gives a total of   1331 points

 initial charge density was supplied:
 charge density of overlapping atoms calculated
 number of electron       8.0000000 magnetization
 keeping initial charge density in first step

 Maximum index for augmentation-charges        14001 (set IRDMAX)

 First call to EWALD:  gamma=   0.452
 Maximum number of real-space cells 3x 3x 3
 Maximum number of reciprocal cells 3x 3x 3

--------------------------------------- Iteration      1(   1)  ---------------------------------------

 eigenvalue-minimisations  :   464
 total energy-change (2. order) : 0.9154291E+01  (-0.2056410E+03)
 number of electron       8.0000000 magnetization
 augmentation part        8.0000000 magnetization

 Free energy of the ion-electron system (eV)
  alpha Z        PSCENC =         6.31213628
  Ewald energy   TEWEN  =      -208.18547193
  -Hartree energ DENC   =       -14.06549262
  -exchange      EXHF   =         0.00000000
  -V(xc)+E(xc)   XCENC  =       -65.53735622
  PAW double counting   =       225.74522980     -148.09406000
  entropy T*S    EENTRO =        -0.00021136
  eigenvalues    EBANDS =         4.16203820
  atomic energy  EATOM  =       208.81747878
  Solvation  Ediel_sol  =         0.00000000
  free energy    TOTEN  =         9.15429094 eV

  energy without entropy =        9.15450230  energy(sigma->0) =        9.15439662

[...]

 eigenvalue-minimisations  :   672
 total energy-change (2. order) :-0.1629724E+02  (-0.1569679E+02)
 number of electron       8.0000000 magnetization
 augmentation part        8.0000000 magnetization

[...]

 Broyden mixing:
  rms(total) = 0.35545E+00    rms(broyden)= 0.35542E+00
  rms(prec ) = 0.58178E+00
  weight for this iteration     100.00

[...]

 eigenvalues of (default mixing * dielectric matrix)
  average eigenvalue GAMMA=   4.9184
  4.9184

[...]

 eigenvalue-minimisations  :   600
 total energy-change (2. order) :-0.3919363E-05  (-0.4657920E-06)
 number of electron       8.0000000 magnetization
 augmentation part       -1.2903654 magnetization

[...]

 Broyden mixing:
  rms(total) = 0.54407E-04    rms(broyden)= 0.54191E-04
  rms(prec ) = 0.72919E-04
  weight for this iteration     100.00

 eigenvalues of (default mixing * dielectric matrix)
  average eigenvalue GAMMA=   2.8674
  5.7109  4.9528  4.7914  3.7589  2.4630  0.9787  0.9787  1.0859  1.0859

[...]

--------------------------------------- Iteration      1(  18)  ---------------------------------------

 eigenvalue-minimisations  :   232
 total energy-change (2. order) : 0.1117081E-07  (-0.1500249E-08)
 number of electron       8.0000000 magnetization
 augmentation part       -1.2903181 magnetization

 Free energy of the ion-electron system (eV)
  alpha Z        PSCENC =         6.31213628
  Ewald energy   TEWEN  =      -208.18547193
  -Hartree energ DENC   =       -16.32933155
  -exchange      EXHF   =         0.00000000
  -V(xc)+E(xc)   XCENC  =       -64.96803532
  PAW double counting   =       556.90200651     -479.54009568
  entropy T*S    EENTRO =        -0.00003013
  eigenvalues    EBANDS =       -10.38212455
  atomic energy  EATOM  =       208.81747878
  Solvation  Ediel_sol  =         0.00000000
  free energy    TOTEN  =        -7.37346757 eV

  energy without entropy =       -7.37343744  energy(sigma->0) =       -7.37345251

 average (electrostatic) potential at core
  the test charge radii are     1.2767  1.1712
  (the norm of the test charge is              1.0000)
       1 -14.1403       2 -88.9765

 E-fermi :   3.4764     XC(G=0):  -8.5645     alpha+bet : -8.6988

 k-point     1 :       0.0000    0.0000    0.0000
  band No.  band energies     occupation
      1      -7.6439      2.00000
      2       3.2010      2.00000
      3       3.4733      1.33335
      4       3.4733      1.33335
      5       3.4733      1.33330
      6       6.2824      0.00000
      7       6.2824      0.00000
      8       6.2824      0.00000

[...]

 k-point    29 :      -0.2500    0.5000    0.2500
  band No.  band energies     occupation
      1      -5.4175      2.00000
      2      -2.9635      2.00000
      3       0.3536      2.00000
      4       0.5780      2.00000
      5       6.9913      0.00000
      6       7.7821      0.00000
      7       7.7862      0.00000
      8       8.2434      0.00000

 soft charge-density along one line, spin component           1
         0         1         2         3         4         5         6         7         8         9
 total charge-density along one line

------------------------ aborting loop because EDIFF is reached ----------------------------------------

 total charge

# of ion       s       p       d       tot
    1        1.112   1.062   0.083   2.257
    2        1.136   1.315   0.023   2.474
tot          2.247   2.378   0.107   4.731

  FORCE on cell =-STRESS in cart. coord.  units (eV):
  Direction    XX          YY          ZZ          XY          YZ          ZX
  Alpha Z     6.31214     6.31214     6.31214
  Ewald     -69.39519   -69.39519   -69.39519    -0.00000    -0.00000     0.00000
  Hartree     5.44311     5.44311     5.44311     0.00000     0.00000     0.00000
  E(xc)     -31.13000   -31.13000   -31.13000     0.00000     0.00000     0.00000
  Local     -38.48564   -38.48564   -38.48564     0.00001     0.00001     0.00001
  n-local    90.09883    91.44078    85.45312     2.62784    -1.33712     0.58144
  augment   -13.25372   -13.25372   -13.25372    -0.00001    -0.00001    -0.00001
  Kinetic    53.55444    52.94716    48.03930     3.65986    -1.21995     1.08901
  Fock        0.00000     0.00000     0.00000     0.00000     0.00000     0.00000
  Total       0.00192     0.00192     0.00192     0.00000     0.00000    -0.00000
  in kB       0.05105     0.05105     0.05105     0.00000     0.00000    -0.00000

 VOLUME and BASIS-vectors are now :
  energy-cutoff  :      244.00
  volume of cell :       60.25
      direct lattice vectors                 reciprocal lattice vectors
     0.000000000  3.111584248  3.111584248    -0.160689848  0.160689848  0.160689848
     3.111584248  0.000000000  3.111584248     0.160689848 -0.160689848  0.160689848
     3.111584248  3.111584248  0.000000000     0.160689848  0.160689848 -0.160689848

  length of vectors
     4.400444644  4.400444644  4.400444644     0.278322981  0.278322981  0.278322981

 FORCES acting on ions
    electron-ion (+dipol)            ewald-force                    non-local-force                 convergence-correction
   0.114E-06 0.114E-06 0.923E-07   0.477E-14 -.399E-14 0.459E-14   -.128E-18 0.241E-18 0.204E-17   -.532E-11 -.532E-11 -.532E-11
   0.222E-06 0.222E-06 0.191E-06   -.471E-14 0.401E-14 -.467E-14   0.140E-15 -.270E-16 0.776E-16   0.458E-09 0.458E-09 0.458E-09
   0.336E-06 0.336E-06 0.284E-06   0.584E-16 0.192E-16 -.782E-16   0.140E-15 -.267E-16 0.796E-16   0.452E-09 0.452E-09 0.452E-09

 POSITION                                       TOTAL-FORCE (eV/Angst)
      0.00000      0.00000      0.00000         0.000000      0.000000      0.000000
      1.55579      1.55579      1.55579        -0.000000     -0.000000     -0.000000
    total drift:                                0.000000      0.000000      0.000000

  FREE ENERGIE OF THE ION-ELECTRON SYSTEM (eV)
  free  energy   TOTEN  =        -7.37346757 eV

  energy  without entropy=       -7.37343744  energy(sigma->0) =       -7.37345251

 reached required accuracy - stopping structural energy minimisation

 total charge

# of ion       s       p       d       tot
    1        1.112   1.062   0.083   2.257
    2        1.136   1.315   0.023   2.474
tot          2.247   2.378   0.107   4.731