 vasp.5.4.4.18Apr17-6-g9f103f2a35 (build Apr 10 2018 17:34:00) complex

 executed on             LinuxIFC date 2018.10.04  08:06:11

 INCAR:
 POTCAR:    PAW_PBE Ga 08Apr2002
 POTCAR:    PAW_PBE As 22Sep2009
 POTCAR:    PAW_PBE Ga 08Apr2002

 POTCAR:    PAW_PBE As 22Sep2009

  PAW_PBE Ga 08Apr2002                  :
  PAW_PBE As 22Sep2009                  :

 POSCAR: GaAs
  positions in direct lattice
  velocities in cartesian coordinates
 exchange correlation table for  LEXCH =        8
   RHO(1)=    0.500       N(1)  =     2000
   RHO(2)=  100.500       N(2)  =     4000

 ion  position               nearest neighbor table
   1  0.000  0.000  0.000-   2 2.49   2 2.49   2 2.49   2 2.49
   2  0.250  0.250  0.250-   1 2.49   1 2.49   1 2.49   1 2.49

  LATTYP: Found a face centered cubic cell.
 ALAT       =     5.7611010077

  Lattice vectors:

 A1 = (   0.0000000000,   2.8805505039,   2.8805505039)
 A2 = (   2.8805505039,   0.0000000000,   2.8805505039)
 A3 = (   2.8805505039,   2.8805505039,   0.0000000000)

Analysis of symmetry for initial positions (statically):
 Subroutine PRICEL returns:
 Original cell was already a primitive cell.

 Routine SETGRP: Setting up the symmetry group for a
 face centered cubic supercell.

 Subroutine GETGRP returns: Found 24 space group operations
 (whereof 24 operations were pure point group operations)
 out of a pool of 48 trial point group operations.

The static configuration has the point symmetry T_d .

Analysis of symmetry for dynamics (positions and initial velocities):
 Subroutine PRICEL returns:
 Original cell was already a primitive cell.

 Routine SETGRP: Setting up the symmetry group for a
 face centered cubic supercell.

 Subroutine GETGRP returns: Found 24 space group operations
 (whereof 24 operations were pure point group operations)
 out of a pool of 48 trial point group operations.

The dynamic configuration has the point symmetry T_d .

 Subroutine INISYM returns: Found 24 space group operations
 (whereof 24 operations are pure point group operations),
 and found     1 'primitive' translations

 KPOINTS: GaAs

Automatic generation of k-mesh.
 generate k-points for:    9    9    9
Space group operators:
 irot       det(A)        alpha          n_x          n_y          n_z        tau_x        tau_y        tau_z
    1     1.000000     0.000000     1.000000     0.000000     0.000000     0.000000     0.000000     0.000000
    2     1.000000   120.000000    -0.577350    -0.577350    -0.577350     0.000000     0.000000     0.000000
    3     1.000000   120.000000     0.577350     0.577350     0.577350     0.000000     0.000000     0.000000
    4    -1.000000    90.000000     0.000000     0.000000    -1.000000     0.000000     0.000000     0.000000
    5    -1.000000   180.000000     0.000000     0.707107     0.707107     0.000000     0.000000     0.000000
    6    -1.000000    90.000000    -0.000000     1.000000    -0.000000     0.000000     0.000000     0.000000
    7     1.000000   180.000000     0.000000     0.000000     1.000000     0.000000     0.000000     0.000000
    8     1.000000   120.000000    -0.577350     0.577350     0.577350     0.000000     0.000000     0.000000
    9     1.000000   120.000000    -0.577350     0.577350    -0.577350     0.000000     0.000000     0.000000
   10    -1.000000    90.000000     0.000000     0.000000     1.000000     0.000000     0.000000     0.000000
   11    -1.000000    90.000000    -1.000000     0.000000     0.000000     0.000000     0.000000     0.000000
   12    -1.000000   180.000000     0.707107     0.000000     0.707107     0.000000     0.000000     0.000000
   13     1.000000   120.000000     0.577350    -0.577350     0.577350     0.000000     0.000000     0.000000
   14     1.000000   120.000000    -0.577350    -0.577350     0.577350     0.000000     0.000000     0.000000
   15     1.000000   180.000000     1.000000     0.000000     0.000000     0.000000     0.000000     0.000000
   16    -1.000000    90.000000     0.000000    -1.000000    -0.000000     0.000000     0.000000     0.000000
   17    -1.000000   180.000000     0.707107     0.707107    -0.000000     0.000000     0.000000     0.000000
   18    -1.000000    90.000000     1.000000     0.000000     0.000000     0.000000     0.000000     0.000000
   19     1.000000   120.000000     0.577350    -0.577350    -0.577350     0.000000     0.000000     0.000000
   20     1.000000   180.000000    -0.000000    -1.000000     0.000000     0.000000     0.000000     0.000000
   21     1.000000   120.000000     0.577350     0.577350    -0.577350     0.000000     0.000000     0.000000
   22    -1.000000   180.000000    -0.000000    -0.707107     0.707107     0.000000     0.000000     0.000000
   23    -1.000000   180.000000     0.707107    -0.707107     0.000000     0.000000     0.000000     0.000000
   24    -1.000000   180.000000     0.707107     0.000000    -0.707107     0.000000     0.000000     0.000000

 Subroutine IBZKPT returns following result:

 Found     35 irreducible k-points:

 Following reciprocal coordinates:
            Coordinates               Weight
  0.000000  0.000000  0.000000      1.000000
  0.111111 -0.000000  0.000000      8.000000
  0.222222 -0.000000 -0.000000      8.000000
  0.333333  0.000000 -0.000000      8.000000
  0.444444 -0.000000 -0.000000      8.000000
  0.111111  0.111111 -0.000000      6.000000
  0.222222  0.111111  0.000000     24.000000
  0.333333  0.111111 -0.000000     24.000000
  0.444444  0.111111  0.000000     24.000000
 -0.444444  0.111111 -0.000000     24.000000
 -0.333333  0.111111 -0.000000     24.000000
 -0.222222  0.111111  0.000000     24.000000
 -0.111111  0.111111 -0.000000     12.000000
  0.222222  0.222222 -0.000000      6.000000
  0.333333  0.222222  0.000000     24.000000
  0.444444  0.222222 -0.000000     24.000000
 -0.444444  0.222222 -0.000000     24.000000
 -0.333333  0.222222  0.000000     24.000000
 -0.222222  0.222222  0.000000     12.000000
  0.333333  0.333333 -0.000000      6.000000
  0.444444  0.333333 -0.000000     24.000000
 -0.444444  0.333333 -0.000000     24.000000
 -0.333333  0.333333  0.000000     12.000000
  0.444444  0.444444 -0.000000      6.000000
 -0.444444  0.444444  0.000000     12.000000
  0.333333  0.222222  0.111111     24.000000
  0.444444  0.222222  0.111111     48.000000
 -0.444444  0.222222  0.111111     48.000000
  0.444444  0.333333  0.111111     24.000000
 -0.444444  0.333333  0.111111     48.000000
 -0.333333  0.333333  0.111111     48.000000
 -0.222222  0.333333  0.111111     24.000000
 -0.444444  0.444444  0.111111     24.000000
 -0.333333  0.444444  0.111111     24.000000
 -0.333333  0.444444  0.222222     24.000000

 Following cartesian coordinates:
            Coordinates               Weight
  0.000000  0.000000  0.000000      1.000000
 -0.019286  0.019286  0.019286      8.000000
 -0.038573  0.038573  0.038573      8.000000
 -0.057859  0.057859  0.057859      8.000000
 -0.077146  0.077146  0.077146      8.000000
  0.000000  0.000000  0.038573      6.000000
 -0.019286  0.019286  0.057859     24.000000
 -0.038573  0.038573  0.077146     24.000000
 -0.057859  0.057859  0.096432     24.000000
  0.096432 -0.096432 -0.057859     24.000000
  0.077146 -0.077146 -0.038573     24.000000
  0.057859 -0.057859 -0.019286     24.000000
  0.038573 -0.038573  0.000000     12.000000
  0.000000 -0.000000  0.077146      6.000000
 -0.019286  0.019286  0.096432     24.000000
 -0.038573  0.038573  0.115719     24.000000
  0.115719 -0.115719 -0.038573     24.000000
  0.096432 -0.096432 -0.019286     24.000000
  0.077146 -0.077146  0.000000     12.000000
  0.000000  0.000000  0.115719      6.000000
 -0.019286  0.019286  0.135005     24.000000
  0.135005 -0.135005 -0.019286     24.000000
  0.115719 -0.115719  0.000000     12.000000
  0.000000 -0.000000  0.154291      6.000000
  0.154291 -0.154291  0.000000     12.000000
 -0.000000  0.038573  0.077146     24.000000
 -0.019286  0.057859  0.096432     48.000000
  0.135005 -0.096432 -0.057859     48.000000
 -0.000000  0.038573  0.115719     24.000000
  0.154291 -0.115719 -0.038573     48.000000
  0.135005 -0.096432 -0.019286     48.000000
  0.115719 -0.077146  0.000000     24.000000
  0.173578 -0.135005 -0.019286     24.000000
  0.154291 -0.115719  0.000000     24.000000
  0.173578 -0.096432 -0.019286     24.000000

 SYSTEM =  GaAs
 POSCAR =  GaAs

 Startparameter for this run:
   NWRITE =      1    write-flag & timer
   PREC   = accura    normal or accurate (medium, high low for compatibility)
   ISTART =      0    job   : 0-new  1-cont  2-samecut
   ICHARG =      2    charge: 1-file 2-atom 10-const
   ISPIN  =      1    spin polarized calculation?
   LNONCOLLINEAR =      F non collinear calculations
   LSORBIT =      F    spin-orbit coupling
   INIWAV =      1    electr: 0-lowe 1-rand  2-diag
   LASPH  =      T    aspherical Exc in radial PAW
   METAGGA=      F    non-selfconsistent MetaGGA calc.

 Electronic Relaxation 1
   ENCUT  =  416.0 eV  30.58 Ry    5.53 a.u.   6.77  6.77  6.77*2*pi/ulx,y,z
   ENINI  =  416.0     initial cutoff
   ENAUG  =  462.8 eV  augmentation charge cutoff
   NELM   =    100;   NELMIN=  6; NELMDL= -8     # of ELM steps
   EDIFF  = 0.1E-06   stopping-criterion for ELM
   LREAL  =      F    real-space projection
   NLSPLINE    = F    spline interpolate recip. space projectors
   LCOMPAT=      F    compatible to vasp.4.4
   GGA_COMPAT  = T    GGA compatible to vasp.4.4-vasp.4.6
   LMAXPAW     = -100 max onsite density
   LMAXMIX     =    6 max onsite mixed and CHGCAR
   VOSKOWN=      0    Vosko Wilk Nusair interpolation
   ROPT   =    0.00000   0.00000
 Ionic relaxation
   EDIFFG = -.1E-02   stopping-criterion for IOM
   NSW    =    100    number of steps for IOM
   NBLOCK =      1;   KBLOCK =    100    inner block; outer block
   IBRION =      2    ionic relax: 0-MD 1-quasi-New 2-CG
   NFREE  =      1    steps in history (QN), initial steepest desc. (CG)
   ISIF   =      3    stress and relaxation
   IWAVPR =     11    prediction:  0-non 1-charg 2-wave 3-comb
   ISYM   =      2    0-nonsym 1-usesym 2-fastsym
   LCORR  =      T    Harris-Foulkes like correction to forces

   POTIM  = 0.5000    time-step for ionic-motion
   TEIN   =    0.0    initial temperature
   TEBEG  =    0.0;   TEEND  =   0.0 temperature during run
   SMASS  =  -3.00    Nose mass-parameter (am)
   estimated Nose-frequenzy (Omega)   =  0.10E-29 period in steps =****** mass=  -0.379E-27a.u.
   SCALEE = 1.0000    scale energy and forces
   NPACO  =    256;   APACO  = 16.0  distance and # of slots for P.C.
   PSTRESS=    0.0 pullay stress

  Mass of Ions in am
   POMASS =  69.72 74.92
  Ionic Valenz
   ZVAL   =   3.00  5.00
  Atomic Wigner-Seitz radii
  virtual crystal weights
   VCA    =   1.00  1.00
   NELECT =       8.0000    total number of electrons
   NUPDOWN=      -1.0000    fix difference up-down

 DOS related values:
   EMIN   =  10.00;   EMAX   =-10.00  energy-range for DOS
   EFERMI =   0.00
   ISMEAR =     0;   SIGMA  =   0.01  broadening in eV -4-tet -1-fermi 0-gaus

 Electronic relaxation 2 (details)
   IALGO  =     38    algorithm
   LDIAG  =      T    sub-space diagonalisation (order eigenvalues)
[...]
   IDIPOL =      0    1-x, 2-y, 3-z, 4-all directions
   EPSILON=  1.0000000 bulk dielectric constant

 Exchange correlation treatment:
   GGA     =    --    GGA type
   VOSKOWN=      0    Vosko Wilk Nusair interpolation
   LHFCALC =     F    Hartree Fock is set to
   LHFONE  =     F    Hartree Fock one center treatment
   AEXX    =    0.0000 exact exchange contribution

 Linear response parameters
   LEPSILON=     F    determine dielectric tensor
   LRPA    =     F    only Hartree local field effects (RPA)
   LNABLA  =     F    use nabla operator in PAW spheres
   LVEL    =     F    velocity operator in full k-point grid
   LINTERFAST=   F  fast interpolation
   KINTER  =     0    interpolate to denser k-point grid
   CSHIFT  =0.1000    complex shift for real part using Kramers Kronig
   OMEGAMAX=  -1.0    maximum frequency
   DEG_THRESHOLD= 0.2000000E-02 threshold for treating states as degnerate
   RTIME   =   -0.100 relaxation time in fs
  (WPLASMAI=    0.000 imaginary part of plasma frequency in eV, 0.658/RTIME)
   DFIELD  = 0.0000000 0.0000000 0.0000000 field for delta impulse in time

 Orbital magnetization related:
   ORBITALMAG=     F  switch on orbital magnetization
   LCHIMAG   =     F  perturbation theory with respect to B field
   DQ        =  0.001000  dq finite difference perturbation B field
   LLRAUG    =     F  two centre corrections for induced B field

 conjugate gradient relaxation of ions
 charge density and potential will be updated during run
 non-spin polarized calculation
 Variant of blocked Davidson
 Davidson routine will perform the subspace rotation
 perform sub-space diagonalisation
    after iterative eigenvector-optimisation
 modified Broyden-mixing scheme, WC =      100.0
 initial mixing is a Kerker type mixing with AMIX =  0.2000 and BMIX =      0.0010
 Hartree-type preconditioning will be used
 using additional bands            4
 reciprocal scheme for non local part
 use partial core corrections
 calculate Harris-corrections to forces
   (improved forces if not selfconsistent)
 use gradient corrections
 use of overlap-Matrix (Vanderbilt PP)
 Gauss-broadening in eV      SIGMA  =   0.01

  energy-cutoff  :      416.00
  volume of cell :       47.80
      direct lattice vectors                 reciprocal lattice vectors
     0.000000000  2.880550504  2.880550504    -0.173577932  0.173577932  0.173577932
     2.880550504  0.000000000  2.880550504     0.173577932 -0.173577932  0.173577932
     2.880550504  2.880550504  0.000000000     0.173577932  0.173577932 -0.173577932

  length of vectors
     4.073713590  4.073713590  4.073713590     0.300645798  0.300645798  0.300645798

 k-points in units of 2pi/SCALE and weight: GaAs
   0.00000000  0.00000000  0.00000000       0.001
  -0.01928644  0.01928644  0.01928644       0.011
  -0.03857287  0.03857287  0.03857287       0.011
  -0.05785931  0.05785931  0.05785931       0.011
  -0.07714575  0.07714575  0.07714575       0.011
  -0.00000000  0.00000000  0.03857287       0.008
  -0.01928644  0.01928644  0.05785931       0.033
  -0.03857287  0.03857287  0.07714575       0.033
  -0.05785931  0.05785931  0.09643218       0.033
   0.09643218 -0.09643218 -0.05785931       0.033
   0.07714575 -0.07714575 -0.03857287       0.033
   0.05785931 -0.05785931 -0.01928644       0.033
   0.03857287 -0.03857287 -0.00000000       0.016
   0.00000000 -0.00000000  0.07714575       0.008
  -0.01928644  0.01928644  0.09643218       0.033
  -0.03857287  0.03857287  0.11571862       0.033
   0.11571862 -0.11571862 -0.03857287       0.033
   0.09643218 -0.09643218 -0.01928644       0.033
   0.07714575 -0.07714575  0.00000000       0.016
  -0.00000000  0.00000000  0.11571862       0.008
  -0.01928644  0.01928644  0.13500506       0.033
   0.13500506 -0.13500506 -0.01928644       0.033
   0.11571862 -0.11571862 -0.00000000       0.016
   0.00000000 -0.00000000  0.15429150       0.008
   0.15429150 -0.15429150  0.00000000       0.016
   0.00000000  0.03857287  0.07714575       0.033
  -0.01928644  0.05785931  0.09643218       0.066
   0.13500506 -0.09643218 -0.05785931       0.066
  -0.00000000  0.03857287  0.11571862       0.033
   0.15429150 -0.11571862 -0.03857287       0.066
   0.13500506 -0.09643218 -0.01928644       0.066
   0.11571862 -0.07714575 -0.00000000       0.033
   0.17357793 -0.13500506 -0.01928644       0.033
   0.15429150 -0.11571862  0.00000000       0.033
   0.17357793 -0.09643218 -0.01928644       0.033

 k-points in reciprocal lattice and weights: GaAs
   0.00000000  0.00000000  0.00000000       0.001
   0.11111111 -0.00000000  0.00000000       0.011
   0.22222222 -0.00000000 -0.00000000       0.011
   0.33333333  0.00000000 -0.00000000       0.011
   0.44444444 -0.00000000 -0.00000000       0.011
   0.11111111  0.11111111 -0.00000000       0.008
   0.22222222  0.11111111  0.00000000       0.033
   0.33333333  0.11111111 -0.00000000       0.033
   0.44444444  0.11111111  0.00000000       0.033
  -0.44444444  0.11111111 -0.00000000       0.033
  -0.33333333  0.11111111 -0.00000000       0.033
  -0.22222222  0.11111111  0.00000000       0.033
  -0.11111111  0.11111111 -0.00000000       0.016
   0.22222222  0.22222222 -0.00000000       0.008
   0.33333333  0.22222222  0.00000000       0.033
   0.44444444  0.22222222 -0.00000000       0.033
  -0.44444444  0.22222222 -0.00000000       0.033
  -0.33333333  0.22222222  0.00000000       0.033
  -0.22222222  0.22222222  0.00000000       0.016
   0.33333333  0.33333333 -0.00000000       0.008
   0.44444444  0.33333333 -0.00000000       0.033
  -0.44444444  0.33333333 -0.00000000       0.033
  -0.33333333  0.33333333  0.00000000       0.016
   0.44444444  0.44444444 -0.00000000       0.008
  -0.44444444  0.44444444  0.00000000       0.016
   0.33333333  0.22222222  0.11111111       0.033
   0.44444444  0.22222222  0.11111111       0.066
  -0.44444444  0.22222222  0.11111111       0.066
   0.44444444  0.33333333  0.11111111       0.033
  -0.44444444  0.33333333  0.11111111       0.066
  -0.33333333  0.33333333  0.11111111       0.066
  -0.22222222  0.33333333  0.11111111       0.033
  -0.44444444  0.44444444  0.11111111       0.033
  -0.33333333  0.44444444  0.11111111       0.033
  -0.33333333  0.44444444  0.22222222       0.033

 position of ions in fractional coordinates (direct lattice)
   0.00000000  0.00000000  0.00000000
   0.25000000  0.25000000  0.25000000

 position of ions in cartesian coordinates  (Angst):
   0.00000000  0.00000000  0.00000000
   1.44027525  1.44027525  1.44027525

 k-point  1 :   0.0000 0.0000 0.0000  plane waves:     941
 k-point  2 :   0.1111-0.0000 0.0000  plane waves:     917
 k-point  3 :   0.2222-0.0000-0.0000  plane waves:     920
 k-point  4 :   0.3333 0.0000-0.0000  plane waves:     926
 k-point  5 :   0.4444-0.0000-0.0000  plane waves:     926
 k-point  6 :   0.1111 0.1111-0.0000  plane waves:     925
 k-point  7 :   0.2222 0.1111 0.0000  plane waves:     921
 k-point  8 :   0.3333 0.1111-0.0000  plane waves:     921
 k-point  9 :   0.4444 0.1111 0.0000  plane waves:     915
 k-point 10 :  -0.4444 0.1111-0.0000  plane waves:     923
 k-point 11 :  -0.3333 0.1111-0.0000  plane waves:     922
 k-point 12 :  -0.2222 0.1111 0.0000  plane waves:     921
 k-point 13 :  -0.1111 0.1111-0.0000  plane waves:     915
 k-point 14 :   0.2222 0.2222-0.0000  plane waves:     918
 k-point 15 :   0.3333 0.2222 0.0000  plane waves:     918
 k-point 16 :   0.4444 0.2222-0.0000  plane waves:     906
 k-point 17 :  -0.4444 0.2222-0.0000  plane waves:     927
 k-point 18 :  -0.3333 0.2222 0.0000  plane waves:     915
 k-point 19 :  -0.2222 0.2222 0.0000  plane waves:     913
 k-point 20 :   0.3333 0.3333-0.0000  plane waves:     922
 k-point 21 :   0.4444 0.3333-0.0000  plane waves:     918
 k-point 22 :  -0.4444 0.3333-0.0000  plane waves:     929
 k-point 23 :  -0.3333 0.3333 0.0000  plane waves:     921
 k-point 24 :   0.4444 0.4444-0.0000  plane waves:     934
 k-point 25 :  -0.4444 0.4444 0.0000  plane waves:     940
 k-point 26 :   0.3333 0.2222 0.1111  plane waves:     926
 k-point 27 :   0.4444 0.2222 0.1111  plane waves:     914
 k-point 28 :  -0.4444 0.2222 0.1111  plane waves:     922
 k-point 29 :   0.4444 0.3333 0.1111  plane waves:     926
 k-point 30 :  -0.4444 0.3333 0.1111  plane waves:     919
 k-point 31 :  -0.3333 0.3333 0.1111  plane waves:     924
 k-point 32 :  -0.2222 0.3333 0.1111  plane waves:     920
 k-point 33 :  -0.4444 0.4444 0.1111  plane waves:     927
 k-point 34 :  -0.3333 0.4444 0.1111  plane waves:     921
 k-point 35 :  -0.3333 0.4444 0.2222  plane waves:     914

 maximum and minimum number of plane-waves per node :       199      173

 maximum number of plane-waves:       941
 maximum index in each direction:
   IXMAX=    7   IYMAX=    6   IZMAX=    6
   IXMIN=   -7   IYMIN=   -7   IZMIN=   -6

 parallel 3D FFT for wavefunctions:
    minimum data exchange during FFTs selected (reduces bandwidth)
 parallel 3D FFT for charge:
    minimum data exchange during FFTs selected (reduces bandwidth)

 Broyden mixing: mesh for mixing (old mesh)
   NGX = 13   NGY = 13   NGZ = 13
  (NGX  = 56   NGY  = 56   NGZ  = 56)
  gives a total of   2197 points

 initial charge density was supplied:
 charge density of overlapping atoms calculated
 number of electron       8.0000000 magnetization
 keeping initial charge density in first step

 Maximum index for augmentation-charges        29155 (set IRDMAX)

 First call to EWALD:  gamma=   0.488
 Maximum number of real-space cells 3x 3x 3
 Maximum number of reciprocal cells 3x 3x 3

--------------------------------------- Iteration      1(   1)  ---------------------------------------

 eigenvalue-minimisations  :   560
 total energy-change (2. order) : 0.1414526E+02  (-0.3119168E+03)
 number of electron       8.0000000 magnetization
 augmentation part        8.0000000 magnetization

 Free energy of the ion-electron system (eV)
  alpha Z        PSCENC =        17.89088900
  Ewald energy   TEWEN  =      -224.88292923
  -Hartree energ DENC   =       -18.77989585
  -exchange      EXHF   =         0.00000000
  -V(xc)+E(xc)   XCENC  =       -31.12855626
  PAW double counting   =       209.13017684     -163.99810489
  entropy T*S    EENTRO =        -0.00016929
  eigenvalues    EBANDS =        -3.14050116
  atomic energy  EATOM  =       229.05435068
  Solvation  Ediel_sol  =         0.00000000
  free energy    TOTEN  =        14.14525986 eV

  energy without entropy =       14.14542915  energy(sigma->0) =       14.14534451

[...]

 eigenvalue-minimisations  :   784
 total energy-change (2. order) :-0.2207434E+02  (-0.2157865E+02)
 number of electron       8.0000000 magnetization
 augmentation part        8.0000000 magnetization

[...]

 Broyden mixing:
  rms(total) = 0.35900E+00    rms(broyden)= 0.35900E+00
  rms(prec ) = 0.76890E+00
  weight for this iteration     100.00

[...]

 eigenvalues of (default mixing * dielectric matrix)
  average eigenvalue GAMMA=   3.9622
  3.9622

[...]

 eigenvalue-minimisations  :   640
 total energy-change (2. order) : 0.1105228E-05  (-0.1926438E-06)
 number of electron       8.0000000 magnetization
 augmentation part       -1.2893260 magnetization

 Broyden mixing:
  rms(total) = 0.22690E-03    rms(broyden)= 0.22688E-03
  rms(prec ) = 0.35877E-03
  weight for this iteration     100.00

 eigenvalues of (default mixing * dielectric matrix)
  average eigenvalue GAMMA=   2.6246
  5.3171  4.7846  4.0963  2.3291  1.4915  1.0805  1.0232  0.8743

[...]

--------------------------------------- Iteration      1(  17)  ---------------------------------------

 eigenvalue-minimisations  :   416
 total energy-change (2. order) :-0.3695584E-07  (-0.1598425E-07)
 number of electron       8.0000000 magnetization
 augmentation part       -1.2893260 magnetization

 Free energy of the ion-electron system (eV)
  alpha Z        PSCENC =        17.89088900
  Ewald energy   TEWEN  =      -224.88292923
  -Hartree energ DENC   =       -22.18868223
  -exchange      EXHF   =         0.00000000
  -V(xc)+E(xc)   XCENC  =       -30.43976638
  PAW double counting   =       460.00225247     -415.23471185
  entropy T*S    EENTRO =        -0.00000000
  eigenvalues    EBANDS =       -22.48750080
  atomic energy  EATOM  =       229.05435068
  Solvation  Ediel_sol  =         0.00000000
  free energy    TOTEN  =        -8.28609835 eV

  energy without entropy =       -8.28609835  energy(sigma->0) =       -8.28609835

 average (electrostatic) potential at core
  the test charge radii are     1.2767  1.0621
  (the norm of the test charge is              1.0000)
       1 -15.0598       2 -51.8840

 E-fermi :   2.3761     XC(G=0):  -8.9548     alpha+bet : -8.0897

 k-point     1 :       0.0000    0.0000    0.0000
  band No.  band energies     occupation
      1     -10.0180      2.00000
      2       2.2946      2.00000
      3       2.2946      2.00000
      4       2.2946      2.00000
      5       2.4516      0.00000
      6       6.0407      0.00000
      7       6.0407      0.00000
      8       6.0407      0.00000

[...]

 k-point    35 :      -0.3333    0.4444    0.2222
  band No.  band energies     occupation
      1      -7.9057      2.00000
      2      -4.0041      2.00000
      3      -1.0826      2.00000
      4      -0.4899      2.00000
      5       6.3733      0.00000
      6       6.7099      0.00000
      7       7.5337      0.00000
      8       9.1635      0.00000

 soft charge-density along one line, spin component           1
         0         1         2         3         4         5         6         7         8         9
 total charge-density along one line

------------------------ aborting loop because EDIFF is reached ----------------------------------------

 total charge

# of ion       s       p       d       tot
    1        1.085   1.121   0.123   2.328
    2        1.216   1.562   0.025   2.803
tot          2.301   2.683   0.148   5.132

  FORCE on cell =-STRESS in cart. coord.  units (eV):
  Direction    XX          YY          ZZ          XY          YZ          ZX
  Alpha Z    17.89089    17.89089    17.89089
  Ewald     -74.96101   -74.96101   -74.96101    -0.00000    -0.00000     0.00000
  Hartree     7.39622     7.39622     7.39622     0.00000     0.00000     0.00000
  E(xc)     -29.82333   -29.82333   -29.82333    -0.00000    -0.00000    -0.00000
  Local     -30.18212   -30.18212   -30.18212     0.00000     0.00000     0.00000
  n-local    44.24329    45.00153    41.73273     1.39011    -0.88125     0.37290
  augment     1.85213     1.85213     1.85213    -0.00000    -0.00000    -0.00000
  Kinetic    66.42092    65.68686    60.40090     4.18537    -1.51594     1.27120
  Fock        0.00000     0.00000     0.00000     0.00000     0.00000     0.00000
  Total       0.00152     0.00152     0.00152     0.00000     0.00000     0.00000
  in kB       0.05104     0.05104     0.05104     0.00000     0.00000     0.00000

 VOLUME and BASIS-vectors are now :
  energy-cutoff  :      416.00
  volume of cell :       47.80
      direct lattice vectors                 reciprocal lattice vectors
     0.000000000  2.880550504  2.880550504    -0.173577932  0.173577932  0.173577932
     2.880550504  0.000000000  2.880550504     0.173577932 -0.173577932  0.173577932
     2.880550504  2.880550504  0.000000000     0.173577932  0.173577932 -0.173577932

  length of vectors
     4.073713590  4.073713590  4.073713590     0.300645798  0.300645798  0.300645798

 FORCES acting on ions
    electron-ion (+dipol)            ewald-force                    non-local-force                 convergence-correction
   0.554E-07 0.554E-07 0.547E-07   0.554E-14 -.103E-13 0.938E-14   -.998E-17 -.152E-16 -.109E-16   0.289E-09 0.289E-09 0.289E-09
   0.874E-07 0.874E-07 0.863E-07   -.568E-14 0.105E-13 -.925E-14   -.204E-16 -.135E-16 0.559E-17   -.427E-09 -.427E-09 -.427E-09
   0.143E-06 0.143E-06 0.141E-06   -.142E-15 0.160E-15 0.133E-15   -.304E-16 -.287E-16 -.534E-17   -.138E-09 -.138E-09 -.138E-09

 POSITION                                       TOTAL-FORCE (eV/Angst)
      0.00000      0.00000      0.00000         0.000000      0.000000     -0.000000
      1.44028      1.44028      1.44028        -0.000000     -0.000000      0.000000
    total drift:                                0.000000      0.000000      0.000000

  FREE ENERGIE OF THE ION-ELECTRON SYSTEM (eV)
  free  energy   TOTEN  =        -8.28609835 eV

  energy  without entropy=       -8.28609835  energy(sigma->0) =       -8.28609835

 reached required accuracy - stopping structural energy minimisation

 total charge

# of ion       s       p       d       tot
    1        1.085   1.121   0.123   2.328
    2        1.216   1.562   0.025   2.803
tot          2.301   2.683   0.148   5.132