 vasp.5.4.4.18Apr17-6-g9f103f2a35 (build Apr 10 2018 17:34:00) complex

 executed on             LinuxIFC date 2018.10.04  08:22:02

 INCAR:
 POTCAR:    PAW_PBE In 08Apr2002
 POTCAR:    PAW_PBE As 22Sep2009
 POTCAR:    PAW_PBE In 08Apr2002

 POTCAR:    PAW_PBE As 22Sep2009

  PAW_PBE In 08Apr2002                  :
  PAW_PBE As 22Sep2009                  :

 POSCAR: InAs
  positions in direct lattice
  velocities in cartesian coordinates
 exchange correlation table for  LEXCH =        8
   RHO(1)=    0.500       N(1)  =     2000
   RHO(2)=  100.500       N(2)  =     4000

 ion  position               nearest neighbor table
   1  0.000  0.000  0.000-   2 2.69   2 2.69   2 2.69   2 2.69
   2  0.250  0.250  0.250-   1 2.69   1 2.69   1 2.69   1 2.69

  LATTYP: Found a face centered cubic cell.
 ALAT       =     6.2110160456

  Lattice vectors:

 A1 = (   0.0000000000,   3.1055080228,   3.1055080228)
 A2 = (   3.1055080228,   0.0000000000,   3.1055080228)
 A3 = (   3.1055080228,   3.1055080228,   0.0000000000)

Analysis of symmetry for initial positions (statically):
 Subroutine PRICEL returns:
 Original cell was already a primitive cell.

 Routine SETGRP: Setting up the symmetry group for a
 face centered cubic supercell.

 Subroutine GETGRP returns: Found 24 space group operations
 (whereof 24 operations were pure point group operations)
 out of a pool of 48 trial point group operations.

The static configuration has the point symmetry T_d .

Analysis of symmetry for dynamics (positions and initial velocities):
 Subroutine PRICEL returns:
 Original cell was already a primitive cell.

 Routine SETGRP: Setting up the symmetry group for a
 face centered cubic supercell.

 Subroutine GETGRP returns: Found 24 space group operations
 (whereof 24 operations were pure point group operations)
 out of a pool of 48 trial point group operations.

The dynamic configuration has the point symmetry T_d .

 Subroutine INISYM returns: Found 24 space group operations
 (whereof 24 operations are pure point group operations),
 and found     1 'primitive' translations

 KPOINTS: InAs

Automatic generation of k-mesh.
 generate k-points for:    8    8    8
Space group operators:
 irot       det(A)        alpha          n_x          n_y          n_z        tau_x        tau_y        tau_z
    1     1.000000     0.000000     1.000000     0.000000     0.000000     0.000000     0.000000     0.000000
    2     1.000000   120.000000    -0.577350    -0.577350    -0.577350     0.000000     0.000000     0.000000
    3     1.000000   120.000000     0.577350     0.577350     0.577350     0.000000     0.000000     0.000000
    4    -1.000000    90.000000     0.000000     0.000000    -1.000000     0.000000     0.000000     0.000000
    5    -1.000000   180.000000    -0.000000    -0.707107    -0.707107     0.000000     0.000000     0.000000
    6    -1.000000    90.000000    -0.000000     1.000000    -0.000000     0.000000     0.000000     0.000000
    7     1.000000   180.000000    -0.000000     0.000000    -1.000000     0.000000     0.000000     0.000000
    8     1.000000   120.000000    -0.577350     0.577350     0.577350     0.000000     0.000000     0.000000
    9     1.000000   120.000000    -0.577350     0.577350    -0.577350     0.000000     0.000000     0.000000
   10    -1.000000    90.000000    -0.000000     0.000000     1.000000     0.000000     0.000000     0.000000
   11    -1.000000    90.000000    -1.000000     0.000000     0.000000     0.000000     0.000000     0.000000
   12    -1.000000   180.000000     0.707107     0.000000     0.707107     0.000000     0.000000     0.000000
   13     1.000000   120.000000     0.577350    -0.577350     0.577350     0.000000     0.000000     0.000000
   14     1.000000   120.000000    -0.577350    -0.577350     0.577350     0.000000     0.000000     0.000000
   15     1.000000   180.000000     1.000000     0.000000     0.000000     0.000000     0.000000     0.000000
   16    -1.000000    90.000000     0.000000    -1.000000    -0.000000     0.000000     0.000000     0.000000
   17    -1.000000   180.000000     0.707107     0.707107    -0.000000     0.000000     0.000000     0.000000
   18    -1.000000    90.000000     1.000000     0.000000     0.000000     0.000000     0.000000     0.000000
   19     1.000000   120.000000     0.577350    -0.577350    -0.577350     0.000000     0.000000     0.000000
   20     1.000000   180.000000    -0.000000    -1.000000     0.000000     0.000000     0.000000     0.000000
   21     1.000000   120.000000     0.577350     0.577350    -0.577350     0.000000     0.000000     0.000000
   22    -1.000000   180.000000     0.000000     0.707107    -0.707107     0.000000     0.000000     0.000000
   23    -1.000000   180.000000    -0.707107     0.707107    -0.000000     0.000000     0.000000     0.000000
   24    -1.000000   180.000000     0.707107     0.000000    -0.707107     0.000000     0.000000     0.000000

 Subroutine IBZKPT returns following result:

 Found     29 irreducible k-points:

 Following reciprocal coordinates:
            Coordinates               Weight
  0.000000  0.000000  0.000000      1.000000
  0.125000 -0.000000 -0.000000      8.000000
  0.250000 -0.000000 -0.000000      8.000000
  0.375000 -0.000000  0.000000      8.000000
  0.500000 -0.000000 -0.000000      4.000000
  0.125000  0.125000 -0.000000      6.000000
  0.250000  0.125000 -0.000000     24.000000
  0.375000  0.125000 -0.000000     24.000000
  0.500000  0.125000 -0.000000     24.000000
 -0.375000  0.125000  0.000000     24.000000
 -0.250000  0.125000  0.000000     24.000000
 -0.125000  0.125000  0.000000     12.000000
  0.250000  0.250000 -0.000000      6.000000
  0.375000  0.250000 -0.000000     24.000000
  0.500000  0.250000 -0.000000     24.000000
 -0.375000  0.250000  0.000000     24.000000
 -0.250000  0.250000  0.000000     12.000000
  0.375000  0.375000 -0.000000      6.000000
  0.500000  0.375000 -0.000000     24.000000
 -0.375000  0.375000 -0.000000     12.000000
  0.500000  0.500000 -0.000000      3.000000
  0.375000  0.250000  0.125000     24.000000
  0.500000  0.250000  0.125000     48.000000
 -0.375000  0.250000  0.125000     24.000000
  0.500000  0.375000  0.125000     24.000000
 -0.375000  0.375000  0.125000     48.000000
 -0.250000  0.375000  0.125000     24.000000
 -0.375000  0.500000  0.125000     12.000000
 -0.250000  0.500000  0.250000      6.000000

 Following cartesian coordinates:
            Coordinates               Weight
  0.000000  0.000000  0.000000      1.000000
 -0.020126  0.020126  0.020126      8.000000
 -0.040251  0.040251  0.040251      8.000000
 -0.060377  0.060377  0.060377      8.000000
 -0.080502  0.080502  0.080502      4.000000
  0.000000  0.000000  0.040251      6.000000
 -0.020126  0.020126  0.060377     24.000000
 -0.040251  0.040251  0.080502     24.000000
 -0.060377  0.060377  0.100628     24.000000
  0.080502 -0.080502 -0.040251     24.000000
  0.060377 -0.060377 -0.020126     24.000000
  0.040251 -0.040251  0.000000     12.000000
  0.000000  0.000000  0.080502      6.000000
 -0.020126  0.020126  0.100628     24.000000
 -0.040251  0.040251  0.120753     24.000000
  0.100628 -0.100628 -0.020126     24.000000
  0.080502 -0.080502  0.000000     12.000000
 -0.000000  0.000000  0.120753      6.000000
 -0.020126  0.020126  0.140879     24.000000
  0.120753 -0.120753  0.000000     12.000000
  0.000000  0.000000  0.161004      3.000000
  0.000000  0.040251  0.080502     24.000000
 -0.020126  0.060377  0.100628     48.000000
  0.120753 -0.080502 -0.040251     24.000000
 -0.000000  0.040251  0.120753     24.000000
  0.140879 -0.100628 -0.020126     48.000000
  0.120753 -0.080502  0.000000     24.000000
  0.161004 -0.120753  0.000000     12.000000
  0.161004 -0.080502  0.000000      6.000000

 SYSTEM =  InAs
 POSCAR =  InAs

 Startparameter for this run:
   NWRITE =      1    write-flag & timer
   PREC   = accura    normal or accurate (medium, high low for compatibility)
   ISTART =      0    job   : 0-new  1-cont  2-samecut
   ICHARG =      2    charge: 1-file 2-atom 10-const
   ISPIN  =      1    spin polarized calculation?
   LNONCOLLINEAR =      F non collinear calculations
   LSORBIT =      F    spin-orbit coupling
   INIWAV =      1    electr: 0-lowe 1-rand  2-diag
   LASPH  =      T    aspherical Exc in radial PAW
   METAGGA=      F    non-selfconsistent MetaGGA calc.

 Electronic Relaxation 1
   ENCUT  =  416.0 eV  30.58 Ry    5.53 a.u.   7.30  7.30  7.30*2*pi/ulx,y,z
   ENINI  =  416.0     initial cutoff
   ENAUG  =  462.8 eV  augmentation charge cutoff
   NELM   =    100;   NELMIN=  6; NELMDL= -8     # of ELM steps
   EDIFF  = 0.1E-06   stopping-criterion for ELM
   LREAL  =      F    real-space projection
   NLSPLINE    = F    spline interpolate recip. space projectors
   LCOMPAT=      F    compatible to vasp.4.4
   GGA_COMPAT  = T    GGA compatible to vasp.4.4-vasp.4.6
   LMAXPAW     = -100 max onsite density
   LMAXMIX     =    6 max onsite mixed and CHGCAR
   VOSKOWN=      0    Vosko Wilk Nusair interpolation
   ROPT   =    0.00000   0.00000
 Ionic relaxation
   EDIFFG = -.1E-02   stopping-criterion for IOM
   NSW    =    100    number of steps for IOM
   NBLOCK =      1;   KBLOCK =    100    inner block; outer block
   IBRION =      2    ionic relax: 0-MD 1-quasi-New 2-CG
   NFREE  =      1    steps in history (QN), initial steepest desc. (CG)
   ISIF   =      3    stress and relaxation
   IWAVPR =     11    prediction:  0-non 1-charg 2-wave 3-comb
   ISYM   =      2    0-nonsym 1-usesym 2-fastsym
   LCORR  =      T    Harris-Foulkes like correction to forces

   POTIM  = 0.5000    time-step for ionic-motion
   TEIN   =    0.0    initial temperature
   TEBEG  =    0.0;   TEEND  =   0.0 temperature during run
   SMASS  =  -3.00    Nose mass-parameter (am)
   estimated Nose-frequenzy (Omega)   =  0.10E-29 period in steps =****** mass=  -0.441E-27a.u.
   SCALEE = 1.0000    scale energy and forces
   NPACO  =    256;   APACO  = 16.0  distance and # of slots for P.C.
   PSTRESS=    0.0 pullay stress

  Mass of Ions in am
   POMASS = 114.82 74.92
  Ionic Valenz
   ZVAL   =   3.00  5.00
  Atomic Wigner-Seitz radii
  virtual crystal weights
   VCA    =   1.00  1.00
   NELECT =       8.0000    total number of electrons
   NUPDOWN=      -1.0000    fix difference up-down

 DOS related values:
   EMIN   =  10.00;   EMAX   =-10.00  energy-range for DOS
   EFERMI =   0.00
   ISMEAR =     0;   SIGMA  =   0.01  broadening in eV -4-tet -1-fermi 0-gaus

 Electronic relaxation 2 (details)
   IALGO  =     38    algorithm
   LDIAG  =      T    sub-space diagonalisation (order eigenvalues)
   LSUBROT=      F    optimize rotation matrix (better conditioning)
   TURBO    =      0    0=normal 1=particle mesh
   IRESTART =      0    0=no restart 2=restart with 2 vectors
   NREBOOT  =      0    no. of reboots
   NMIN     =      0    reboot dimension
   EREF     =   0.00    reference energy to select bands
   IMIX   =      4    mixing-type and parameters
     AMIX     =   0.20;   BMIX     =  0.00
     AMIX_MAG =   0.80;   BMIX_MAG =  0.00
     AMIN     =   0.10
     WC   =   100.;   INIMIX=   1;  MIXPRE=   1;  MAXMIX= -45

 Intra band minimization:
   WEIMIN = 0.0010     energy-eigenvalue tresh-hold
   EBREAK =  0.31E-08  absolut break condition
   DEPER  =   0.30     relativ break condition

   TIME   =   0.40     timestep for ELM

  volume/ion in A,a.u.               =      29.95       202.11
  Fermi-wavevector in a.u.,A,eV,Ry     =   0.836814  1.581349  9.527580  0.700257
  Thomas-Fermi vector in A             =   1.950600

 Write flags
   LWAVE        =      F    write WAVECAR
   LDOWNSAMPLE  =      F    k-point downsampling of WAVECAR
   LCHARG       =      F    write CHGCAR
   LVTOT        =      F    write LOCPOT, total local potential
   LVHAR        =      F    write LOCPOT, Hartree potential only
   LELF         =      F    write electronic localiz. function (ELF)
   LORBIT       =     10    0 simple, 1 ext, 2 COOP (PROOUT), +10 PAW based schemes

 Dipole corrections
   LMONO  =      F    monopole corrections only (constant potential shift)
   LDIPOL =      F    correct potential (dipole corrections)
   IDIPOL =      0    1-x, 2-y, 3-z, 4-all directions
   EPSILON=  1.0000000 bulk dielectric constant

 Exchange correlation treatment:
   GGA     =    --    GGA type
   VOSKOWN=      0    Vosko Wilk Nusair interpolation
   LHFCALC =     F    Hartree Fock is set to
   LHFONE  =     F    Hartree Fock one center treatment
   AEXX    =    0.0000 exact exchange contribution

 Linear response parameters
   LEPSILON=     F    determine dielectric tensor
   LRPA    =     F    only Hartree local field effects (RPA)
   LNABLA  =     F    use nabla operator in PAW spheres
   LVEL    =     F    velocity operator in full k-point grid
   LINTERFAST=   F  fast interpolation
   KINTER  =     0    interpolate to denser k-point grid
   CSHIFT  =0.1000    complex shift for real part using Kramers Kronig
   OMEGAMAX=  -1.0    maximum frequency
   DEG_THRESHOLD= 0.2000000E-02 threshold for treating states as degnerate
   RTIME   =   -0.100 relaxation time in fs
  (WPLASMAI=    0.000 imaginary part of plasma frequency in eV, 0.658/RTIME)
   DFIELD  = 0.0000000 0.0000000 0.0000000 field for delta impulse in time

 Orbital magnetization related:
   ORBITALMAG=     F  switch on orbital magnetization
   LCHIMAG   =     F  perturbation theory with respect to B field
   DQ        =  0.001000  dq finite difference perturbation B field
   LLRAUG    =     F  two centre corrections for induced B field

 conjugate gradient relaxation of ions
 charge density and potential will be updated during run
 non-spin polarized calculation
 Variant of blocked Davidson
 Davidson routine will perform the subspace rotation
 perform sub-space diagonalisation
    after iterative eigenvector-optimisation
 modified Broyden-mixing scheme, WC =      100.0
 initial mixing is a Kerker type mixing with AMIX =  0.2000 and BMIX =      0.0010
 Hartree-type preconditioning will be used
 using additional bands            4
 reciprocal scheme for non local part
 use partial core corrections
 calculate Harris-corrections to forces
   (improved forces if not selfconsistent)
 use gradient corrections
 use of overlap-Matrix (Vanderbilt PP)
 Gauss-broadening in eV      SIGMA  =   0.01

  energy-cutoff  :      416.00
  volume of cell :       59.90
      direct lattice vectors                 reciprocal lattice vectors
     0.000000000  3.105508023  3.105508023    -0.161004253  0.161004253  0.161004253
     3.105508023  0.000000000  3.105508023     0.161004253 -0.161004253  0.161004253
     3.105508023  3.105508023  0.000000000     0.161004253  0.161004253 -0.161004253

  length of vectors
     4.391851564  4.391851564  4.391851564     0.278867547  0.278867547  0.278867547

 k-points in units of 2pi/SCALE and weight: InAs
   0.00000000  0.00000000  0.00000000       0.002
  -0.02012553  0.02012553  0.02012553       0.016
  -0.04025106  0.04025106  0.04025106       0.016
  -0.06037659  0.06037659  0.06037659       0.016
  -0.08050213  0.08050213  0.08050213       0.008
  -0.00000000 -0.00000000  0.04025106       0.012
  -0.02012553  0.02012553  0.06037659       0.047
  -0.04025106  0.04025106  0.08050213       0.047
  -0.06037659  0.06037659  0.10062766       0.047
   0.08050213 -0.08050213 -0.04025106       0.047
   0.06037659 -0.06037659 -0.02012553       0.047
   0.04025106 -0.04025106  0.00000000       0.023
  -0.00000000 -0.00000000  0.08050213       0.012
  -0.02012553  0.02012553  0.10062766       0.047
  -0.04025106  0.04025106  0.12075319       0.047
   0.10062766 -0.10062766 -0.02012553       0.047
   0.08050213 -0.08050213  0.00000000       0.023
  -0.00000000  0.00000000  0.12075319       0.012
  -0.02012553  0.02012553  0.14087872       0.047
   0.12075319 -0.12075319  0.00000000       0.023
  -0.00000000 -0.00000000  0.16100425       0.006
   0.00000000  0.04025106  0.08050213       0.047
  -0.02012553  0.06037659  0.10062766       0.094
   0.12075319 -0.08050213 -0.04025106       0.047
  -0.00000000  0.04025106  0.12075319       0.047
   0.14087872 -0.10062766 -0.02012553       0.094
   0.12075319 -0.08050213  0.00000000       0.047
   0.16100425 -0.12075319 -0.00000000       0.023
   0.16100425 -0.08050213 -0.00000000       0.012

 k-points in reciprocal lattice and weights: InAs
   0.00000000  0.00000000  0.00000000       0.002
   0.12500000 -0.00000000 -0.00000000       0.016
   0.25000000 -0.00000000 -0.00000000       0.016
   0.37500000 -0.00000000  0.00000000       0.016
   0.50000000 -0.00000000 -0.00000000       0.008
   0.12500000  0.12500000 -0.00000000       0.012
   0.25000000  0.12500000 -0.00000000       0.047
   0.37500000  0.12500000 -0.00000000       0.047
   0.50000000  0.12500000 -0.00000000       0.047
  -0.37500000  0.12500000  0.00000000       0.047
  -0.25000000  0.12500000  0.00000000       0.047
  -0.12500000  0.12500000  0.00000000       0.023
   0.25000000  0.25000000 -0.00000000       0.012
   0.37500000  0.25000000 -0.00000000       0.047
   0.50000000  0.25000000 -0.00000000       0.047
  -0.37500000  0.25000000  0.00000000       0.047
  -0.25000000  0.25000000  0.00000000       0.023
   0.37500000  0.37500000 -0.00000000       0.012
   0.50000000  0.37500000 -0.00000000       0.047
  -0.37500000  0.37500000 -0.00000000       0.023
   0.50000000  0.50000000 -0.00000000       0.006
   0.37500000  0.25000000  0.12500000       0.047
   0.50000000  0.25000000  0.12500000       0.094
  -0.37500000  0.25000000  0.12500000       0.047
   0.50000000  0.37500000  0.12500000       0.047
  -0.37500000  0.37500000  0.12500000       0.094
  -0.25000000  0.37500000  0.12500000       0.047
  -0.37500000  0.50000000  0.12500000       0.023
  -0.25000000  0.50000000  0.25000000       0.012

 position of ions in fractional coordinates (direct lattice)
   0.00000000  0.00000000  0.00000000
   0.25000000  0.25000000  0.25000000

 position of ions in cartesian coordinates  (Angst):
   0.00000000  0.00000000  0.00000000
   1.55275401  1.55275401  1.55275401

 k-point  1 :   0.0000 0.0000 0.0000  plane waves:    1139
 k-point  2 :   0.1250-0.0000-0.0000  plane waves:    1173
 k-point  3 :   0.2500-0.0000-0.0000  plane waves:    1164
 k-point  4 :   0.3750-0.0000 0.0000  plane waves:    1155
 k-point  5 :   0.5000-0.0000-0.0000  plane waves:    1158
 k-point  6 :   0.1250 0.1250-0.0000  plane waves:    1163
 k-point  7 :   0.2500 0.1250-0.0000  plane waves:    1160
 k-point  8 :   0.3750 0.1250-0.0000  plane waves:    1151
 k-point  9 :   0.5000 0.1250-0.0000  plane waves:    1160
 k-point 10 :  -0.3750 0.1250 0.0000  plane waves:    1151
 k-point 11 :  -0.2500 0.1250 0.0000  plane waves:    1151
 k-point 12 :  -0.1250 0.1250 0.0000  plane waves:    1159
 k-point 13 :   0.2500 0.2500-0.0000  plane waves:    1174
 k-point 14 :   0.3750 0.2500-0.0000  plane waves:    1157
 k-point 15 :   0.5000 0.2500-0.0000  plane waves:    1156
 k-point 16 :  -0.3750 0.2500 0.0000  plane waves:    1150
 k-point 17 :  -0.2500 0.2500 0.0000  plane waves:    1159
 k-point 18 :   0.3750 0.3750-0.0000  plane waves:    1150
 k-point 19 :   0.5000 0.3750-0.0000  plane waves:    1150
 k-point 20 :  -0.3750 0.3750-0.0000  plane waves:    1144
 k-point 21 :   0.5000 0.5000-0.0000  plane waves:    1162
 k-point 22 :   0.3750 0.2500 0.1250  plane waves:    1153
 k-point 23 :   0.5000 0.2500 0.1250  plane waves:    1150
 k-point 24 :  -0.3750 0.2500 0.1250  plane waves:    1154
 k-point 25 :   0.5000 0.3750 0.1250  plane waves:    1171
 k-point 26 :  -0.3750 0.3750 0.1250  plane waves:    1157
 k-point 27 :  -0.2500 0.3750 0.1250  plane waves:    1153
 k-point 28 :  -0.3750 0.5000 0.1250  plane waves:    1156
 k-point 29 :  -0.2500 0.5000 0.2500  plane waves:    1144

 maximum and minimum number of plane-waves per node :       248      219

 maximum number of plane-waves:      1174
 maximum index in each direction:
   IXMAX=    7   IYMAX=    7   IZMAX=    7
   IXMIN=   -7   IYMIN=   -7   IZMIN=   -7

 parallel 3D FFT for wavefunctions:
    minimum data exchange during FFTs selected (reduces bandwidth)
 parallel 3D FFT for charge:
    minimum data exchange during FFTs selected (reduces bandwidth)

 Broyden mixing: mesh for mixing (old mesh)
   NGX = 15   NGY = 15   NGZ = 15
  (NGX  = 60   NGY  = 60   NGZ  = 60)
  gives a total of   3375 points

 initial charge density was supplied:
 charge density of overlapping atoms calculated
 number of electron       8.0000000 magnetization
 keeping initial charge density in first step

 Maximum index for augmentation-charges        39195 (set IRDMAX)

 First call to EWALD:  gamma=   0.453
 Maximum number of real-space cells 3x 3x 3
 Maximum number of reciprocal cells 3x 3x 3

--------------------------------------- Iteration      1(   1)  ---------------------------------------

 eigenvalue-minimisations  :   480
 total energy-change (2. order) : 0.1604676E+02  (-0.2735834E+03)
 number of electron       8.0000000 magnetization
 augmentation part        8.0000000 magnetization

 Free energy of the ion-electron system (eV)
  alpha Z        PSCENC =         6.19609973
  Ewald energy   TEWEN  =      -208.59280682
  -Hartree energ DENC   =       -22.87803490
  -exchange      EXHF   =         0.00000000
  -V(xc)+E(xc)   XCENC  =       -67.86271711
  PAW double counting   =       241.28716128     -160.47085024
  entropy T*S    EENTRO =        -0.00028258
  eigenvalues    EBANDS =         4.39179594
  atomic energy  EATOM  =       223.97639693
  Solvation  Ediel_sol  =         0.00000000
  free energy    TOTEN  =        16.04676222 eV

  energy without entropy =       16.04704481  energy(sigma->0) =       16.04690352

[...]

 eigenvalue-minimisations  :   736
 total energy-change (2. order) :-0.2335746E+02  (-0.2292019E+02)
 number of electron       8.0000000 magnetization
 augmentation part        8.0000000 magnetization

[...]

 Broyden mixing:
  rms(total) = 0.43149E+00    rms(broyden)= 0.43149E+00
  rms(prec ) = 0.87540E+00
  weight for this iteration     100.00

[...]

 eigenvalues of (default mixing * dielectric matrix)
  average eigenvalue GAMMA=   3.5702
  3.5702

[...]

 eigenvalue-minimisations  :   600
 total energy-change (2. order) : 0.6266804E-06  (-0.2327365E-06)
 number of electron       8.0000000 magnetization
 augmentation part       -1.4918827 magnetization

 Broyden mixing:
  rms(total) = 0.18970E-03    rms(broyden)= 0.18967E-03
  rms(prec ) = 0.22708E-03
  weight for this iteration     100.00

 eigenvalues of (default mixing * dielectric matrix)
  average eigenvalue GAMMA=   2.6285
  5.2852  5.2852  4.8959  2.1547  1.8268  1.1375  1.1375  0.9490  0.9844

[...]

--------------------------------------- Iteration      1(  18)  ---------------------------------------

 eigenvalue-minimisations  :   280
 total energy-change (2. order) :-0.1748219E-07  (-0.7066173E-08)
 number of electron       8.0000000 magnetization
 augmentation part       -1.4918827 magnetization

 Free energy of the ion-electron system (eV)
  alpha Z        PSCENC =         6.19609973
  Ewald energy   TEWEN  =      -208.59280682
  -Hartree energ DENC   =       -26.94560639
  -exchange      EXHF   =         0.00000000
  -V(xc)+E(xc)   XCENC  =       -67.08679085
  PAW double counting   =       474.20562081     -393.81351147
  entropy T*S    EENTRO =        -0.00003013
  eigenvalues    EBANDS =       -15.63428381
  atomic energy  EATOM  =       223.97639693
  Solvation  Ediel_sol  =         0.00000000
  free energy    TOTEN  =        -7.69491199 eV

  energy without entropy =       -7.69488186  energy(sigma->0) =       -7.69489693

 average (electrostatic) potential at core
  the test charge radii are     1.4837  1.0621
  (the norm of the test charge is              1.0000)
       1 -39.6625       2 -51.3805

 E-fermi :   2.6310     XC(G=0):  -8.5334     alpha+bet : -8.2257

 k-point     1 :       0.0000    0.0000    0.0000
  band No.  band energies     occupation
      1      -8.7293      2.00000
      2       2.0694      2.00000
      3       2.6280      1.33336
      4       2.6280      1.33334
      5       2.6280      1.33331
      6       6.5239      0.00000
      7       6.5239      0.00000
      8       6.5239      0.00000

[...]

 k-point    29 :      -0.2500    0.5000    0.2500
  band No.  band energies     occupation
      1      -7.1835      2.00000
      2      -2.7243      2.00000
      3      -0.0063      2.00000
      4       0.1055      2.00000
      5       6.5236      0.00000
      6       6.8998      0.00000
      7       7.4319      0.00000
      8       8.6724      0.00000

 soft charge-density along one line, spin component           1
         0         1         2         3         4         5         6         7         8         9
 total charge-density along one line

------------------------ aborting loop because EDIFF is reached ----------------------------------------

 total charge

# of ion       s       p       d       tot
    1        1.203   1.271   0.176   2.649
    2        1.229   1.522   0.016   2.767
tot          2.431   2.793   0.191   5.416

  FORCE on cell =-STRESS in cart. coord.  units (eV):
  Direction    XX          YY          ZZ          XY          YZ          ZX
  Alpha Z     6.19610     6.19610     6.19610
  Ewald     -69.53096   -69.53096   -69.53096    -0.00000    -0.00000     0.00000
  Hartree     8.98160     8.98160     8.98160     0.00000     0.00000     0.00000
  E(xc)     -30.99605   -30.99605   -30.99605    -0.00000    -0.00000    -0.00000
  Local     -34.15174   -34.15174   -34.15174     0.00000     0.00000     0.00000
  n-local    67.94050    68.79333    64.52455     1.68228    -0.95392     0.44879
  augment    -8.56231    -8.56231    -8.56231    -0.00000    -0.00000    -0.00000
  Kinetic    62.99435    62.77438    57.16365     3.82780    -1.66284     1.25878
  Fock        0.00000     0.00000     0.00000     0.00000     0.00000     0.00000
  Total       0.00023     0.00023     0.00023     0.00000     0.00000    -0.00000
  in kB       0.00602     0.00602     0.00602     0.00000     0.00000    -0.00000

 VOLUME and BASIS-vectors are now :
  energy-cutoff  :      416.00
  volume of cell :       59.90
      direct lattice vectors                 reciprocal lattice vectors
     0.000000000  3.105508023  3.105508023    -0.161004253  0.161004253  0.161004253
     3.105508023  0.000000000  3.105508023     0.161004253 -0.161004253  0.161004253
     3.105508023  3.105508023  0.000000000     0.161004253  0.161004253 -0.161004253

  length of vectors
     4.391851564  4.391851564  4.391851564     0.278867547  0.278867547  0.278867547

 FORCES acting on ions
    electron-ion (+dipol)            ewald-force                    non-local-force                 convergence-correction
   -.516E-07 -.516E-07 -.484E-07   -.183E-15 0.399E-15 -.492E-15   0.413E-16 0.275E-16 0.279E-16   -.159E-09 -.159E-09 -.159E-09
   0.766E-07 0.766E-07 0.750E-07   0.185E-15 -.421E-15 0.447E-15   0.688E-16 0.688E-16 0.510E-16   0.104E-08 0.104E-08 0.104E-08
   0.250E-07 0.250E-07 0.266E-07   0.133E-17 -.219E-16 -.451E-16   0.110E-15 0.963E-16 0.789E-16   0.877E-09 0.877E-09 0.877E-09

 POSITION                                       TOTAL-FORCE (eV/Angst)
      0.00000      0.00000      0.00000        -0.000000     -0.000000     -0.000000
      1.55275      1.55275      1.55275         0.000000      0.000000      0.000000
    total drift:                                0.000000      0.000000      0.000000

  FREE ENERGIE OF THE ION-ELECTRON SYSTEM (eV)
  free  energy   TOTEN  =        -7.69491199 eV

  energy  without entropy=       -7.69488186  energy(sigma->0) =       -7.69489693

 reached required accuracy - stopping structural energy minimisation

 total charge

# of ion       s       p       d       tot
    1        1.203   1.271   0.176   2.649
    2        1.229   1.522   0.016   2.767
tot          2.431   2.793   0.191   5.416