 vasp.5.4.4.18Apr17-6-g9f103f2a35 (build Apr 10 2018 17:34:00) complex

 executed on             LinuxIFC date 2018.10.04  08:05:26

 INCAR:
 POTCAR:    PAW_PBE Al 04Jan2001
 POTCAR:    PAW_PBE Sb 06Sep2000
 POTCAR:    PAW_PBE Al 04Jan2001

 POTCAR:    PAW_PBE Sb 06Sep2000

  PAW_PBE Al 04Jan2001                  :
  PAW_PBE Sb 06Sep2000                  :

 POSCAR: AlSb
  positions in direct lattice
  velocities in cartesian coordinates
 exchange correlation table for  LEXCH =        8
   RHO(1)=    0.500       N(1)  =     2000
   RHO(2)=  100.500       N(2)  =     4000

 ion  position               nearest neighbor table
   1  0.000  0.000  0.000-   2 2.70   2 2.70   2 2.70   2 2.70
   2  0.250  0.250  0.250-   1 2.70   1 2.70   1 2.70   1 2.70

  LATTYP: Found a face centered cubic cell.
 ALAT       =     6.2323338525

  Lattice vectors:

 A1 = (   0.0000000000,   3.1161669263,   3.1161669263)
 A2 = (   3.1161669263,   0.0000000000,   3.1161669263)
 A3 = (   3.1161669263,   3.1161669263,   0.0000000000)

Analysis of symmetry for initial positions (statically):
 Subroutine PRICEL returns:
 Original cell was already a primitive cell.

 Routine SETGRP: Setting up the symmetry group for a
 face centered cubic supercell.

 Subroutine GETGRP returns: Found 24 space group operations
 (whereof 24 operations were pure point group operations)
 out of a pool of 48 trial point group operations.

The static configuration has the point symmetry T_d .

Analysis of symmetry for dynamics (positions and initial velocities):
 Subroutine PRICEL returns:
 Original cell was already a primitive cell.

 Routine SETGRP: Setting up the symmetry group for a
 face centered cubic supercell.

 Subroutine GETGRP returns: Found 24 space group operations
 (whereof 24 operations were pure point group operations)
 out of a pool of 48 trial point group operations.

The dynamic configuration has the point symmetry T_d .

 Subroutine INISYM returns: Found 24 space group operations
 (whereof 24 operations are pure point group operations),
 and found     1 'primitive' translations

 KPOINTS: AlSb

Automatic generation of k-mesh.
 generate k-points for:    8    8    8
Space group operators:
 irot       det(A)        alpha          n_x          n_y          n_z        tau_x        tau_y        tau_z
    1     1.000000     0.000000     1.000000     0.000000     0.000000     0.000000     0.000000     0.000000
    2     1.000000   120.000000    -0.577350    -0.577350    -0.577350     0.000000     0.000000     0.000000
    3     1.000000   120.000000     0.577350     0.577350     0.577350     0.000000     0.000000     0.000000
    4    -1.000000    90.000000     0.000000     0.000000    -1.000000     0.000000     0.000000     0.000000
    5    -1.000000   180.000000    -0.000000     0.707107     0.707107     0.000000     0.000000     0.000000
    6    -1.000000    90.000000     0.000000     1.000000     0.000000     0.000000     0.000000     0.000000
    7     1.000000   180.000000    -0.000000     0.000000     1.000000     0.000000     0.000000     0.000000
    8     1.000000   120.000000    -0.577350     0.577350     0.577350     0.000000     0.000000     0.000000
    9     1.000000   120.000000    -0.577350     0.577350    -0.577350     0.000000     0.000000     0.000000
   10    -1.000000    90.000000    -0.000000    -0.000000     1.000000     0.000000     0.000000     0.000000
   11    -1.000000    90.000000    -1.000000    -0.000000    -0.000000     0.000000     0.000000     0.000000
   12    -1.000000   180.000000     0.707107     0.000000     0.707107     0.000000     0.000000     0.000000
   13     1.000000   120.000000     0.577350    -0.577350     0.577350     0.000000     0.000000     0.000000
   14     1.000000   120.000000    -0.577350    -0.577350     0.577350     0.000000     0.000000     0.000000
   15     1.000000   180.000000     1.000000     0.000000     0.000000     0.000000     0.000000     0.000000
   16    -1.000000    90.000000     0.000000    -1.000000     0.000000     0.000000     0.000000     0.000000
   17    -1.000000   180.000000     0.707107     0.707107     0.000000     0.000000     0.000000     0.000000
   18    -1.000000    90.000000     1.000000     0.000000     0.000000     0.000000     0.000000     0.000000
   19     1.000000   120.000000     0.577350    -0.577350    -0.577350     0.000000     0.000000     0.000000
   20     1.000000   180.000000     0.000000    -1.000000     0.000000     0.000000     0.000000     0.000000
   21     1.000000   120.000000     0.577350     0.577350    -0.577350     0.000000     0.000000     0.000000
   22    -1.000000   180.000000     0.000000    -0.707107     0.707107     0.000000     0.000000     0.000000
   23    -1.000000   180.000000     0.707107    -0.707107    -0.000000     0.000000     0.000000     0.000000
   24    -1.000000   180.000000     0.707107     0.000000    -0.707107     0.000000     0.000000     0.000000

 Subroutine IBZKPT returns following result:

 Found     29 irreducible k-points:

 Following reciprocal coordinates:
            Coordinates               Weight
  0.000000  0.000000  0.000000      1.000000
  0.125000  0.000000 -0.000000      8.000000
  0.250000  0.000000 -0.000000      8.000000
  0.375000  0.000000 -0.000000      8.000000
  0.500000  0.000000 -0.000000      4.000000
  0.125000  0.125000  0.000000      6.000000
  0.250000  0.125000  0.000000     24.000000
  0.375000  0.125000 -0.000000     24.000000
  0.500000  0.125000  0.000000     24.000000
 -0.375000  0.125000  0.000000     24.000000
 -0.250000  0.125000  0.000000     24.000000
 -0.125000  0.125000  0.000000     12.000000
  0.250000  0.250000  0.000000      6.000000
  0.375000  0.250000  0.000000     24.000000
  0.500000  0.250000  0.000000     24.000000
 -0.375000  0.250000  0.000000     24.000000
 -0.250000  0.250000  0.000000     12.000000
  0.375000  0.375000  0.000000      6.000000
  0.500000  0.375000  0.000000     24.000000
 -0.375000  0.375000  0.000000     12.000000
  0.500000  0.500000  0.000000      3.000000
  0.375000  0.250000  0.125000     24.000000
  0.500000  0.250000  0.125000     48.000000
 -0.375000  0.250000  0.125000     24.000000
  0.500000  0.375000  0.125000     24.000000
 -0.375000  0.375000  0.125000     48.000000
 -0.250000  0.375000  0.125000     24.000000
 -0.375000  0.500000  0.125000     12.000000
 -0.250000  0.500000  0.250000      6.000000

 Following cartesian coordinates:
            Coordinates               Weight
  0.000000  0.000000  0.000000      1.000000
 -0.020057  0.020057  0.020057      8.000000
 -0.040113  0.040113  0.040113      8.000000
 -0.060170  0.060170  0.060170      8.000000
 -0.080227  0.080227  0.080227      4.000000
 -0.000000  0.000000  0.040113      6.000000
 -0.020057  0.020057  0.060170     24.000000
 -0.040113  0.040113  0.080227     24.000000
 -0.060170  0.060170  0.100283     24.000000
  0.080227 -0.080227 -0.040113     24.000000
  0.060170 -0.060170 -0.020057     24.000000
  0.040113 -0.040113  0.000000     12.000000
 -0.000000  0.000000  0.080227      6.000000
 -0.020057  0.020057  0.100283     24.000000
 -0.040113  0.040113  0.120340     24.000000
  0.100283 -0.100283 -0.020057     24.000000
  0.080227 -0.080227  0.000000     12.000000
  0.000000 -0.000000  0.120340      6.000000
 -0.020057  0.020057  0.140397     24.000000
  0.120340 -0.120340  0.000000     12.000000
 -0.000000  0.000000  0.160454      3.000000
  0.000000  0.040113  0.080227     24.000000
 -0.020057  0.060170  0.100283     48.000000
  0.120340 -0.080227 -0.040113     24.000000
 -0.000000  0.040113  0.120340     24.000000
  0.140397 -0.100283 -0.020057     48.000000
  0.120340 -0.080227  0.000000     24.000000
  0.160454 -0.120340 -0.000000     12.000000
  0.160454 -0.080227 -0.000000      6.000000

 SYSTEM =  AlSb
 POSCAR =  AlSb

 Startparameter for this run:
   NWRITE =      1    write-flag & timer
   PREC   = accura    normal or accurate (medium, high low for compatibility)
   ISTART =      0    job   : 0-new  1-cont  2-samecut
   ICHARG =      2    charge: 1-file 2-atom 10-const
   ISPIN  =      1    spin polarized calculation?
   LNONCOLLINEAR =      F non collinear calculations
   LSORBIT =      F    spin-orbit coupling
   INIWAV =      1    electr: 0-lowe 1-rand  2-diag
   LASPH  =      T    aspherical Exc in radial PAW
   METAGGA=      F    non-selfconsistent MetaGGA calc.

 Electronic Relaxation 1
   ENCUT  =  460.0 eV  33.81 Ry    5.81 a.u.   7.71  7.71  7.71*2*pi/ulx,y,z
   ENINI  =  460.0     initial cutoff
   ENAUG  =  380.5 eV  augmentation charge cutoff
   NELM   =    100;   NELMIN=  6; NELMDL= -8     # of ELM steps
   EDIFF  = 0.1E-06   stopping-criterion for ELM
   LREAL  =      F    real-space projection
   NLSPLINE    = F    spline interpolate recip. space projectors
   LCOMPAT=      F    compatible to vasp.4.4
   GGA_COMPAT  = T    GGA compatible to vasp.4.4-vasp.4.6
   LMAXPAW     = -100 max onsite density
   LMAXMIX     =    6 max onsite mixed and CHGCAR
   VOSKOWN=      0    Vosko Wilk Nusair interpolation
   ROPT   =    0.00000   0.00000
 Ionic relaxation
   EDIFFG = -.1E-02   stopping-criterion for IOM
   NSW    =    100    number of steps for IOM
   NBLOCK =      1;   KBLOCK =    100    inner block; outer block
   IBRION =      2    ionic relax: 0-MD 1-quasi-New 2-CG
   NFREE  =      1    steps in history (QN), initial steepest desc. (CG)
   ISIF   =      3    stress and relaxation
   IWAVPR =     11    prediction:  0-non 1-charg 2-wave 3-comb
   ISYM   =      2    0-nonsym 1-usesym 2-fastsym
   LCORR  =      T    Harris-Foulkes like correction to forces

   POTIM  = 0.5000    time-step for ionic-motion
   TEIN   =    0.0    initial temperature
   TEBEG  =    0.0;   TEEND  =   0.0 temperature during run
   SMASS  =  -3.00    Nose mass-parameter (am)
   estimated Nose-frequenzy (Omega)   =  0.10E-29 period in steps =****** mass=  -0.444E-27a.u.
   SCALEE = 1.0000    scale energy and forces
   NPACO  =    256;   APACO  = 16.0  distance and # of slots for P.C.
   PSTRESS=    0.0 pullay stress

  Mass of Ions in am
   POMASS =  26.98121.75
  Ionic Valenz
   ZVAL   =   3.00  5.00
  Atomic Wigner-Seitz radii
  virtual crystal weights
   VCA    =   1.00  1.00
   NELECT =       8.0000    total number of electrons
   NUPDOWN=      -1.0000    fix difference up-down

 DOS related values:
   EMIN   =  10.00;   EMAX   =-10.00  energy-range for DOS
   EFERMI =   0.00
   ISMEAR =     0;   SIGMA  =   0.01  broadening in eV -4-tet -1-fermi 0-gaus

 Electronic relaxation 2 (details)
   IALGO  =     38    algorithm
   LDIAG  =      T    sub-space diagonalisation (order eigenvalues)
   LSUBROT=      F    optimize rotation matrix (better conditioning)
   TURBO    =      0    0=normal 1=particle mesh
   IRESTART =      0    0=no restart 2=restart with 2 vectors
   NREBOOT  =      0    no. of reboots
   NMIN     =      0    reboot dimension
   EREF     =   0.00    reference energy to select bands
   IMIX   =      4    mixing-type and parameters
     AMIX     =   0.20;   BMIX     =  0.00
     AMIX_MAG =   0.80;   BMIX_MAG =  0.00
     AMIN     =   0.10
     WC   =   100.;   INIMIX=   1;  MIXPRE=   1;  MAXMIX= -45

 Intra band minimization:
   WEIMIN = 0.0010     energy-eigenvalue tresh-hold
   EBREAK =  0.31E-08  absolut break condition
   DEPER  =   0.30     relativ break condition

   TIME   =   0.40     timestep for ELM

  volume/ion in A,a.u.               =      30.26       204.20
  Fermi-wavevector in a.u.,A,eV,Ry     =   0.833951  1.575940  9.462513  0.695475
  Thomas-Fermi vector in A             =   1.947262

 Write flags
   LWAVE        =      F    write WAVECAR
   LDOWNSAMPLE  =      F    k-point downsampling of WAVECAR
   LCHARG       =      F    write CHGCAR
   LVTOT        =      F    write LOCPOT, total local potential
   LVHAR        =      F    write LOCPOT, Hartree potential only
   LELF         =      F    write electronic localiz. function (ELF)
   LORBIT       =     10    0 simple, 1 ext, 2 COOP (PROOUT), +10 PAW based schemes

 Dipole corrections
   LMONO  =      F    monopole corrections only (constant potential shift)
   LDIPOL =      F    correct potential (dipole corrections)
   IDIPOL =      0    1-x, 2-y, 3-z, 4-all directions
   EPSILON=  1.0000000 bulk dielectric constant

 Exchange correlation treatment:
   GGA     =    --    GGA type
   VOSKOWN=      0    Vosko Wilk Nusair interpolation
   LHFCALC =     F    Hartree Fock is set to
   LHFONE  =     F    Hartree Fock one center treatment
   AEXX    =    0.0000 exact exchange contribution

 Linear response parameters
   LEPSILON=     F    determine dielectric tensor
   LRPA    =     F    only Hartree local field effects (RPA)
   LNABLA  =     F    use nabla operator in PAW spheres
   LVEL    =     F    velocity operator in full k-point grid
   LINTERFAST=   F  fast interpolation
   KINTER  =     0    interpolate to denser k-point grid
   CSHIFT  =0.1000    complex shift for real part using Kramers Kronig
   OMEGAMAX=  -1.0    maximum frequency
   DEG_THRESHOLD= 0.2000000E-02 threshold for treating states as degnerate
   RTIME   =   -0.100 relaxation time in fs
  (WPLASMAI=    0.000 imaginary part of plasma frequency in eV, 0.658/RTIME)
   DFIELD  = 0.0000000 0.0000000 0.0000000 field for delta impulse in time

 Orbital magnetization related:
   ORBITALMAG=     F  switch on orbital magnetization
   LCHIMAG   =     F  perturbation theory with respect to B field
   DQ        =  0.001000  dq finite difference perturbation B field
   LLRAUG    =     F  two centre corrections for induced B field

 conjugate gradient relaxation of ions
 charge density and potential will be updated during run
 non-spin polarized calculation
 Variant of blocked Davidson
 Davidson routine will perform the subspace rotation
 perform sub-space diagonalisation
    after iterative eigenvector-optimisation
 modified Broyden-mixing scheme, WC =      100.0
 initial mixing is a Kerker type mixing with AMIX =  0.2000 and BMIX =      0.0010
 Hartree-type preconditioning will be used
 using additional bands            4
 reciprocal scheme for non local part
 use partial core corrections
 calculate Harris-corrections to forces
   (improved forces if not selfconsistent)
 use gradient corrections
 use of overlap-Matrix (Vanderbilt PP)
 Gauss-broadening in eV      SIGMA  =   0.01

  energy-cutoff  :      460.00
  volume of cell :       60.52
      direct lattice vectors                 reciprocal lattice vectors
     0.000000000  3.116166926  3.116166926    -0.160453535  0.160453535  0.160453535
     3.116166926  0.000000000  3.116166926     0.160453535 -0.160453535  0.160453535
     3.116166926  3.116166926  0.000000000     0.160453535  0.160453535 -0.160453535

  length of vectors
     4.406925530  4.406925530  4.406925530     0.277913675  0.277913675  0.277913675

 k-points in units of 2pi/SCALE and weight: AlSb
   0.00000000  0.00000000  0.00000000       0.002
  -0.02005669  0.02005669  0.02005669       0.016
  -0.04011338  0.04011338  0.04011338       0.016
  -0.06017008  0.06017008  0.06017008       0.016
  -0.08022677  0.08022677  0.08022677       0.008
  -0.00000000  0.00000000  0.04011338       0.012
  -0.02005669  0.02005669  0.06017008       0.047
  -0.04011338  0.04011338  0.08022677       0.047
  -0.06017008  0.06017008  0.10028346       0.047
   0.08022677 -0.08022677 -0.04011338       0.047
   0.06017008 -0.06017008 -0.02005669       0.047
   0.04011338 -0.04011338 -0.00000000       0.023
  -0.00000000  0.00000000  0.08022677       0.012
  -0.02005669  0.02005669  0.10028346       0.047
  -0.04011338  0.04011338  0.12034015       0.047
   0.10028346 -0.10028346 -0.02005669       0.047
   0.08022677 -0.08022677 -0.00000000       0.023
   0.00000000 -0.00000000  0.12034015       0.012
  -0.02005669  0.02005669  0.14039684       0.047
   0.12034015 -0.12034015 -0.00000000       0.023
  -0.00000000  0.00000000  0.16045354       0.006
   0.00000000  0.04011338  0.08022677       0.047
  -0.02005669  0.06017008  0.10028346       0.094
   0.12034015 -0.08022677 -0.04011338       0.047
  -0.00000000  0.04011338  0.12034015       0.047
   0.14039684 -0.10028346 -0.02005669       0.094
   0.12034015 -0.08022677 -0.00000000       0.047
   0.16045354 -0.12034015 -0.00000000       0.023
   0.16045354 -0.08022677 -0.00000000       0.012

 k-points in reciprocal lattice and weights: AlSb
   0.00000000  0.00000000  0.00000000       0.002
   0.12500000  0.00000000 -0.00000000       0.016
   0.25000000  0.00000000 -0.00000000       0.016
   0.37500000  0.00000000 -0.00000000       0.016
   0.50000000  0.00000000 -0.00000000       0.008
   0.12500000  0.12500000  0.00000000       0.012
   0.25000000  0.12500000  0.00000000       0.047
   0.37500000  0.12500000 -0.00000000       0.047
   0.50000000  0.12500000  0.00000000       0.047
  -0.37500000  0.12500000  0.00000000       0.047
  -0.25000000  0.12500000  0.00000000       0.047
  -0.12500000  0.12500000  0.00000000       0.023
   0.25000000  0.25000000  0.00000000       0.012
   0.37500000  0.25000000  0.00000000       0.047
   0.50000000  0.25000000  0.00000000       0.047
  -0.37500000  0.25000000  0.00000000       0.047
  -0.25000000  0.25000000  0.00000000       0.023
   0.37500000  0.37500000  0.00000000       0.012
   0.50000000  0.37500000  0.00000000       0.047
  -0.37500000  0.37500000  0.00000000       0.023
   0.50000000  0.50000000  0.00000000       0.006
   0.37500000  0.25000000  0.12500000       0.047
   0.50000000  0.25000000  0.12500000       0.094
  -0.37500000  0.25000000  0.12500000       0.047
   0.50000000  0.37500000  0.12500000       0.047
  -0.37500000  0.37500000  0.12500000       0.094
  -0.25000000  0.37500000  0.12500000       0.047
  -0.37500000  0.50000000  0.12500000       0.023
  -0.25000000  0.50000000  0.25000000       0.012

 position of ions in fractional coordinates (direct lattice)
   0.00000000  0.00000000  0.00000000
   0.25000000  0.25000000  0.25000000

 position of ions in cartesian coordinates  (Angst):
   0.00000000  0.00000000  0.00000000
   1.55808346  1.55808346  1.55808346

 k-point  1 :   0.0000 0.0000 0.0000  plane waves:    1363
 k-point  2 :   0.1250 0.0000-0.0000  plane waves:    1366
 k-point  3 :   0.2500 0.0000-0.0000  plane waves:    1363
 k-point  4 :   0.3750 0.0000-0.0000  plane waves:    1362
 k-point  5 :   0.5000 0.0000-0.0000  plane waves:    1380
 k-point  6 :   0.1250 0.1250 0.0000  plane waves:    1355
 k-point  7 :   0.2500 0.1250 0.0000  plane waves:    1352
 k-point  8 :   0.3750 0.1250-0.0000  plane waves:    1354
 k-point  9 :   0.5000 0.1250 0.0000  plane waves:    1360
 k-point 10 :  -0.3750 0.1250 0.0000  plane waves:    1363
 k-point 11 :  -0.2500 0.1250 0.0000  plane waves:    1353
 k-point 12 :  -0.1250 0.1250 0.0000  plane waves:    1365
 k-point 13 :   0.2500 0.2500 0.0000  plane waves:    1355
 k-point 14 :   0.3750 0.2500 0.0000  plane waves:    1355
 k-point 15 :   0.5000 0.2500 0.0000  plane waves:    1359
 k-point 16 :  -0.3750 0.2500 0.0000  plane waves:    1352
 k-point 17 :  -0.2500 0.2500 0.0000  plane waves:    1360
 k-point 18 :   0.3750 0.3750 0.0000  plane waves:    1359
 k-point 19 :   0.5000 0.3750 0.0000  plane waves:    1350
 k-point 20 :  -0.3750 0.3750 0.0000  plane waves:    1350
 k-point 21 :   0.5000 0.5000 0.0000  plane waves:    1362
 k-point 22 :   0.3750 0.2500 0.1250  plane waves:    1347
 k-point 23 :   0.5000 0.2500 0.1250  plane waves:    1353
 k-point 24 :  -0.3750 0.2500 0.1250  plane waves:    1356
 k-point 25 :   0.5000 0.3750 0.1250  plane waves:    1353
 k-point 26 :  -0.3750 0.3750 0.1250  plane waves:    1358
 k-point 27 :  -0.2500 0.3750 0.1250  plane waves:    1348
 k-point 28 :  -0.3750 0.5000 0.1250  plane waves:    1358
 k-point 29 :  -0.2500 0.5000 0.2500  plane waves:    1348

 maximum and minimum number of plane-waves per node :       285      260

 maximum number of plane-waves:      1380
 maximum index in each direction:
   IXMAX=    8   IYMAX=    7   IZMAX=    7
   IXMIN=   -8   IYMIN=   -8   IZMIN=   -7

 parallel 3D FFT for wavefunctions:
    minimum data exchange during FFTs selected (reduces bandwidth)
 parallel 3D FFT for charge:
    minimum data exchange during FFTs selected (reduces bandwidth)

 Broyden mixing: mesh for mixing (old mesh)
   NGX = 15   NGY = 15   NGZ = 15
  (NGX  = 64   NGY  = 64   NGZ  = 64)
  gives a total of   3375 points

 initial charge density was supplied:
 charge density of overlapping atoms calculated
 number of electron       8.0000000 magnetization
 keeping initial charge density in first step

 Maximum index for augmentation-charges        23594 (set IRDMAX)

 First call to EWALD:  gamma=   0.451
 Maximum number of real-space cells 3x 3x 3
 Maximum number of reciprocal cells 3x 3x 3

--------------------------------------- Iteration      1(   1)  ---------------------------------------

 eigenvalue-minimisations  :   464
 total energy-change (2. order) : 0.1631134E+02  (-0.2663909E+03)
 number of electron       8.0000000 magnetization
 augmentation part        8.0000000 magnetization

 Free energy of the ion-electron system (eV)
  alpha Z        PSCENC =        -1.72369768
  Ewald energy   TEWEN  =      -207.87931148
  -Hartree energ DENC   =       -13.37455951
  -exchange      EXHF   =         0.00000000
  -V(xc)+E(xc)   XCENC  =       -72.86565113
  PAW double counting   =       229.87962722     -143.96909389
  entropy T*S    EENTRO =        -0.00004549
  eigenvalues    EBANDS =        22.75485631
  atomic energy  EATOM  =       203.48921574
  Solvation  Ediel_sol  =         0.00000000
  free energy    TOTEN  =        16.31134010 eV

  energy without entropy =       16.31138559  energy(sigma->0) =       16.31136285

[...]

 eigenvalue-minimisations  :   608
 total energy-change (2. order) :-0.2400357E+02  (-0.2366706E+02)
 number of electron       8.0000000 magnetization
 augmentation part        8.0000000 magnetization

[...]

 Broyden mixing:
  rms(total) = 0.32860E+00    rms(broyden)= 0.32860E+00
  rms(prec ) = 0.63957E+00
  weight for this iteration     100.00

[...]

 eigenvalues of (default mixing * dielectric matrix)
  average eigenvalue GAMMA=   4.6906
  4.6906

[...]

 eigenvalue-minimisations  :   576
 total energy-change (2. order) :-0.1096281E-05  (-0.2460810E-06)
 number of electron       8.0000000 magnetization
 augmentation part       -0.8056970 magnetization

[...]

 Broyden mixing:
  rms(total) = 0.38955E-04    rms(broyden)= 0.38927E-04
  rms(prec ) = 0.72679E-04
  weight for this iteration     100.00

 eigenvalues of (default mixing * dielectric matrix)
  average eigenvalue GAMMA=   2.8274
  5.4439  4.9616  3.7740  2.8008  2.5499  1.0190  1.0351  1.0351

[...]

--------------------------------------- Iteration      1(  17)  ---------------------------------------

 eigenvalue-minimisations  :   272
 total energy-change (2. order) : 0.2342318E-07  (-0.6228303E-08)
 number of electron       8.0000000 magnetization
 augmentation part       -0.8056192 magnetization

 Free energy of the ion-electron system (eV)
  alpha Z        PSCENC =        -1.72369768
  Ewald energy   TEWEN  =      -207.87931148
  -Hartree energ DENC   =       -16.28874822
  -exchange      EXHF   =         0.00000000
  -V(xc)+E(xc)   XCENC  =       -72.31745397
  PAW double counting   =       531.39180078     -445.60957572
  entropy T*S    EENTRO =        -0.00000000
  eigenvalues    EBANDS =         0.72444905
  atomic energy  EATOM  =       203.48921574
  Solvation  Ediel_sol  =         0.00000000
  free energy    TOTEN  =        -8.21332151 eV

  energy without entropy =       -8.21332151  energy(sigma->0) =       -8.21332151

 average (electrostatic) potential at core
  the test charge radii are     1.0406  1.1712
  (the norm of the test charge is              1.0000)
       1 -76.1674       2 -87.5141

 E-fermi :   4.4201     XC(G=0):  -8.4682     alpha+bet : -9.9713

 k-point     1 :       0.0000    0.0000    0.0000
  band No.  band energies     occupation
      1      -6.0972      2.00000
      2       4.3735      2.00000
      3       4.3735      2.00000
      4       4.3735      2.00000
      5       5.6285      0.00000
      6       7.4493      0.00000
      7       7.4493      0.00000
      8       7.4493      0.00000

[...]

 k-point    29 :      -0.2500    0.5000    0.2500
  band No.  band energies     occupation
      1      -4.2173      2.00000
      2      -0.7816      2.00000
      3       1.4869      2.00000
      4       1.7818      2.00000
      5       8.3259      0.00000
      6       8.6426      0.00000
      7       8.8290      0.00000
      8       9.1487      0.00000

 soft charge-density along one line, spin component           1
         0         1         2         3         4         5         6         7         8         9
 total charge-density along one line

------------------------ aborting loop because EDIFF is reached ----------------------------------------

 total charge

# of ion       s       p       d       tot
    1        0.418   0.341   0.000   0.759
    2        1.112   1.390   0.022   2.524
tot          1.530   1.731   0.022   3.283

  FORCE on cell =-STRESS in cart. coord.  units (eV):
  Direction    XX          YY          ZZ          XY          YZ          ZX
  Alpha Z    -1.72370    -1.72370    -1.72370
  Ewald     -69.29313   -69.29313   -69.29313    -0.00000    -0.00000     0.00000
  Hartree     5.42944     5.42944     5.42944     0.00000     0.00000     0.00000
  E(xc)     -28.82307   -28.82307   -28.82307     0.00000     0.00000     0.00000
  Local     -39.45651   -39.45651   -39.45651     0.00000     0.00000     0.00000
  n-local   104.47273   105.72112    99.92968     2.65878    -1.55648     0.76130
  augment   -17.50276   -17.50276   -17.50276    -0.00000    -0.00000    -0.00000
  Kinetic    49.73142    48.81540    45.43621     3.21794    -1.17625     1.06012
  Fock        0.00000     0.00000     0.00000     0.00000     0.00000     0.00000
  Total      -0.00087    -0.00087    -0.00087    -0.00000     0.00000    -0.00000
  in kB      -0.02315    -0.02315    -0.02315    -0.00000     0.00000    -0.00000

 VOLUME and BASIS-vectors are now :
  energy-cutoff  :      460.00
  volume of cell :       60.52
      direct lattice vectors                 reciprocal lattice vectors
     0.000000000  3.116166926  3.116166926    -0.160453535  0.160453535  0.160453535
     3.116166926  0.000000000  3.116166926     0.160453535 -0.160453535  0.160453535
     3.116166926  3.116166926  0.000000000     0.160453535  0.160453535 -0.160453535

  length of vectors
     4.406925530  4.406925530  4.406925530     0.277913675  0.277913675  0.277913675

 FORCES acting on ions
    electron-ion (+dipol)            ewald-force                    non-local-force                 convergence-correction
   -.280E-06 -.280E-06 -.285E-06   0.443E-14 -.748E-14 0.600E-14   -.430E-16 -.153E-16 -.291E-16   -.137E-09 -.137E-09 -.137E-09
   0.393E-07 0.393E-07 0.388E-07   -.442E-14 0.755E-14 -.571E-14   -.946E-16 -.136E-15 -.919E-16   0.287E-09 0.287E-09 0.287E-09
   -.241E-06 -.241E-06 -.246E-06   0.573E-17 0.722E-16 0.296E-15   -.138E-15 -.151E-15 -.121E-15   0.150E-09 0.150E-09 0.150E-09

 POSITION                                       TOTAL-FORCE (eV/Angst)
      0.00000      0.00000      0.00000         0.000000     -0.000000      0.000000
      1.55808      1.55808      1.55808        -0.000000      0.000000     -0.000000
    total drift:                               -0.000000     -0.000000     -0.000000

  FREE ENERGIE OF THE ION-ELECTRON SYSTEM (eV)
  free  energy   TOTEN  =        -8.21332151 eV

  energy  without entropy=       -8.21332151  energy(sigma->0) =       -8.21332151

 reached required accuracy - stopping structural energy minimisation

 total charge

# of ion       s       p       d       tot
    1        0.418   0.341   0.000   0.759
    2        1.112   1.390   0.022   2.524
tot          1.530   1.731   0.022   3.283