 vasp.5.4.4.18Apr17-6-g9f103f2a35 (build Apr 10 2018 17:34:00) complex

 executed on             LinuxIFC date 2018.10.04  08:18:56

 INCAR:
 POTCAR:    PAW_PBE Ga 08Apr2002
 POTCAR:    PAW_PBE N 08Apr2002
 POTCAR:    PAW_PBE Ga 08Apr2002

 POTCAR:    PAW_PBE N 08Apr2002

 WARNING: PSMAXN for non-local potential too small
          PSMAXN should be >   14.4904333269122       NTYP=           1
  PAW_PBE Ga 08Apr2002                  :
  PAW_PBE N 08Apr2002                   :

 POSCAR: GaN
  positions in direct lattice
  velocities in cartesian coordinates
 exchange correlation table for  LEXCH =        8
   RHO(1)=    0.500       N(1)  =     2000
   RHO(2)=  100.500       N(2)  =     4000

 ion  position               nearest neighbor table
   1  0.000  0.000  0.000-   2 1.99   2 1.99   2 1.99   2 1.99
   2  0.250  0.250  0.250-   1 1.99   1 1.99   1 1.99   1 1.99

  LATTYP: Found a face centered cubic cell.
 ALAT       =     4.5877371212

  Lattice vectors:

 A1 = (   0.0000000000,   2.2938685606,   2.2938685606)
 A2 = (   2.2938685606,   0.0000000000,   2.2938685606)
 A3 = (   2.2938685606,   2.2938685606,   0.0000000000)

Analysis of symmetry for initial positions (statically):
 Subroutine PRICEL returns:
 Original cell was already a primitive cell.

 Routine SETGRP: Setting up the symmetry group for a
 face centered cubic supercell.

 Subroutine GETGRP returns: Found 24 space group operations
 (whereof 24 operations were pure point group operations)
 out of a pool of 48 trial point group operations.

The static configuration has the point symmetry T_d .

Analysis of symmetry for dynamics (positions and initial velocities):
 Subroutine PRICEL returns:
 Original cell was already a primitive cell.

 Routine SETGRP: Setting up the symmetry group for a
 face centered cubic supercell.

 Subroutine GETGRP returns: Found 24 space group operations
 (whereof 24 operations were pure point group operations)
 out of a pool of 48 trial point group operations.

The dynamic configuration has the point symmetry T_d .

 Subroutine INISYM returns: Found 24 space group operations
 (whereof 24 operations are pure point group operations),
 and found     1 'primitive' translations

 KPOINTS: GaN

Automatic generation of k-mesh.
 generate k-points for:   11   11   11
Space group operators:
 irot       det(A)        alpha          n_x          n_y          n_z        tau_x        tau_y        tau_z
    1     1.000000     0.000000     1.000000     0.000000     0.000000     0.000000     0.000000     0.000000
    2     1.000000   120.000000    -0.577350    -0.577350    -0.577350     0.000000     0.000000     0.000000
    3     1.000000   120.000000     0.577350     0.577350     0.577350     0.000000     0.000000     0.000000
    4    -1.000000    90.000000     0.000000     0.000000    -1.000000     0.000000     0.000000     0.000000
    5    -1.000000   180.000000     0.000000     0.707107     0.707107     0.000000     0.000000     0.000000
    6    -1.000000    90.000000    -0.000000     1.000000     0.000000     0.000000     0.000000     0.000000
    7     1.000000   180.000000    -0.000000     0.000000     1.000000     0.000000     0.000000     0.000000
    8     1.000000   120.000000    -0.577350     0.577350     0.577350     0.000000     0.000000     0.000000
    9     1.000000   120.000000    -0.577350     0.577350    -0.577350     0.000000     0.000000     0.000000
   10    -1.000000    90.000000     0.000000     0.000000     1.000000     0.000000     0.000000     0.000000
   11    -1.000000    90.000000    -1.000000     0.000000     0.000000     0.000000     0.000000     0.000000
   12    -1.000000   180.000000     0.707107     0.000000     0.707107     0.000000     0.000000     0.000000
   13     1.000000   120.000000     0.577350    -0.577350     0.577350     0.000000     0.000000     0.000000
   14     1.000000   120.000000    -0.577350    -0.577350     0.577350     0.000000     0.000000     0.000000
   15     1.000000   180.000000     1.000000     0.000000     0.000000     0.000000     0.000000     0.000000
   16    -1.000000    90.000000     0.000000    -1.000000    -0.000000     0.000000     0.000000     0.000000
   17    -1.000000   180.000000     0.707107     0.707107    -0.000000     0.000000     0.000000     0.000000
   18    -1.000000    90.000000     1.000000     0.000000     0.000000     0.000000     0.000000     0.000000
   19     1.000000   120.000000     0.577350    -0.577350    -0.577350     0.000000     0.000000     0.000000
   20     1.000000   180.000000    -0.000000    -1.000000     0.000000     0.000000     0.000000     0.000000
   21     1.000000   120.000000     0.577350     0.577350    -0.577350     0.000000     0.000000     0.000000
   22    -1.000000   180.000000     0.000000    -0.707107     0.707107     0.000000     0.000000     0.000000
   23    -1.000000   180.000000     0.707107    -0.707107     0.000000     0.000000     0.000000     0.000000
   24    -1.000000   180.000000    -0.707107     0.000000     0.707107     0.000000     0.000000     0.000000

 Subroutine IBZKPT returns following result:

 Found     56 irreducible k-points:

 Following reciprocal coordinates:
            Coordinates               Weight
  0.000000  0.000000  0.000000      1.000000
  0.090909  0.000000 -0.000000      8.000000
  0.181818  0.000000 -0.000000      8.000000
  0.272727 -0.000000  0.000000      8.000000
  0.363636  0.000000 -0.000000      8.000000
  0.454545  0.000000  0.000000      8.000000
  0.090909  0.090909 -0.000000      6.000000
  0.181818  0.090909 -0.000000     24.000000
  0.272727  0.090909 -0.000000     24.000000
  0.363636  0.090909 -0.000000     24.000000
  0.454545  0.090909 -0.000000     24.000000
 -0.454545  0.090909 -0.000000     24.000000
 -0.363636  0.090909 -0.000000     24.000000
 -0.272727  0.090909  0.000000     24.000000
 -0.181818  0.090909 -0.000000     24.000000
 -0.090909  0.090909  0.000000     12.000000
  0.181818  0.181818 -0.000000      6.000000
  0.272727  0.181818  0.000000     24.000000
  0.363636  0.181818 -0.000000     24.000000
  0.454545  0.181818  0.000000     24.000000
 -0.454545  0.181818 -0.000000     24.000000
 -0.363636  0.181818 -0.000000     24.000000
 -0.272727  0.181818 -0.000000     24.000000
 -0.181818  0.181818  0.000000     12.000000
  0.272727  0.272727 -0.000000      6.000000
  0.363636  0.272727 -0.000000     24.000000
  0.454545  0.272727  0.000000     24.000000
 -0.454545  0.272727  0.000000     24.000000
 -0.363636  0.272727 -0.000000     24.000000
 -0.272727  0.272727 -0.000000     12.000000
  0.363636  0.363636 -0.000000      6.000000
  0.454545  0.363636 -0.000000     24.000000
 -0.454545  0.363636 -0.000000     24.000000
 -0.363636  0.363636  0.000000     12.000000
  0.454545  0.454545 -0.000000      6.000000
 -0.454545  0.454545 -0.000000     12.000000
  0.272727  0.181818  0.090909     24.000000
  0.363636  0.181818  0.090909     48.000000
  0.454545  0.181818  0.090909     48.000000
 -0.454545  0.181818  0.090909     48.000000
  0.363636  0.272727  0.090909     24.000000
  0.454545  0.272727  0.090909     48.000000
 -0.454545  0.272727  0.090909     48.000000
 -0.363636  0.272727  0.090909     48.000000
 -0.272727  0.272727  0.090909     48.000000
 -0.181818  0.272727  0.090909     24.000000
  0.454545  0.363636  0.090909     24.000000
 -0.454545  0.363636  0.090909     48.000000
 -0.363636  0.363636  0.090909     48.000000
 -0.272727  0.363636  0.090909     24.000000
 -0.454545  0.454545  0.090909     24.000000
 -0.363636  0.454545  0.090909     24.000000
 -0.454545  0.363636  0.181818     24.000000
 -0.363636  0.363636  0.181818     48.000000
 -0.363636  0.454545  0.181818     24.000000
 -0.272727  0.454545  0.181818     24.000000

 Following cartesian coordinates:
            Coordinates               Weight
  0.000000  0.000000  0.000000      1.000000
 -0.019816  0.019816  0.019816      8.000000
 -0.039631  0.039631  0.039631      8.000000
 -0.059447  0.059447  0.059447      8.000000
 -0.079263  0.079263  0.079263      8.000000
 -0.099078  0.099078  0.099078      8.000000
  0.000000 -0.000000  0.039631      6.000000
 -0.019816  0.019816  0.059447     24.000000
 -0.039631  0.039631  0.079263     24.000000
 -0.059447  0.059447  0.099078     24.000000
 -0.079263  0.079263  0.118894     24.000000
  0.118894 -0.118894 -0.079263     24.000000
  0.099078 -0.099078 -0.059447     24.000000
  0.079263 -0.079263 -0.039631     24.000000
  0.059447 -0.059447 -0.019816     24.000000
  0.039631 -0.039631 -0.000000     12.000000
  0.000000 -0.000000  0.079263      6.000000
 -0.019816  0.019816  0.099078     24.000000
 -0.039631  0.039631  0.118894     24.000000
 -0.059447  0.059447  0.138710     24.000000
  0.138710 -0.138710 -0.059447     24.000000
  0.118894 -0.118894 -0.039631     24.000000
  0.099078 -0.099078 -0.019816     24.000000
  0.079263 -0.079263 -0.000000     12.000000
  0.000000 -0.000000  0.118894      6.000000
 -0.019816  0.019816  0.138710     24.000000
 -0.039631  0.039631  0.158525     24.000000
  0.158525 -0.158525 -0.039631     24.000000
  0.138710 -0.138710 -0.019816     24.000000
  0.118894 -0.118894  0.000000     12.000000
  0.000000 -0.000000  0.158525      6.000000
 -0.019816  0.019816  0.178341     24.000000
  0.178341 -0.178341 -0.019816     24.000000
  0.158525 -0.158525 -0.000000     12.000000
 -0.000000  0.000000  0.198157      6.000000
  0.198157 -0.198157 -0.000000     12.000000
  0.000000  0.039631  0.079263     24.000000
 -0.019816  0.059447  0.099078     48.000000
 -0.039631  0.079263  0.118894     48.000000
  0.158525 -0.118894 -0.079263     48.000000
  0.000000  0.039631  0.118894     24.000000
 -0.019816  0.059447  0.138710     48.000000
  0.178341 -0.138710 -0.059447     48.000000
  0.158525 -0.118894 -0.039631     48.000000
  0.138710 -0.099078 -0.019816     48.000000
  0.118894 -0.079263 -0.000000     24.000000
  0.000000  0.039631  0.158525     24.000000
  0.198157 -0.158525 -0.039631     48.000000
  0.178341 -0.138710 -0.019816     48.000000
  0.158525 -0.118894  0.000000     24.000000
  0.217972 -0.178341 -0.019816     24.000000
  0.198157 -0.158525  0.000000     24.000000
  0.217972 -0.138710 -0.059447     24.000000
  0.198157 -0.118894 -0.039631     48.000000
  0.217972 -0.138710 -0.019816     24.000000
  0.198157 -0.118894  0.000000     24.000000

 SYSTEM =  GaN
 POSCAR =  GaN

 Startparameter for this run:
   NWRITE =      1    write-flag & timer
   PREC   = accura    normal or accurate (medium, high low for compatibility)
   ISTART =      0    job   : 0-new  1-cont  2-samecut
   ICHARG =      2    charge: 1-file 2-atom 10-const
   ISPIN  =      1    spin polarized calculation?
   LNONCOLLINEAR =      F non collinear calculations
   LSORBIT =      F    spin-orbit coupling
   INIWAV =      1    electr: 0-lowe 1-rand  2-diag
   LASPH  =      T    aspherical Exc in radial PAW
   METAGGA=      F    non-selfconsistent MetaGGA calc.

 Electronic Relaxation 1
   ENCUT  =  800.0 eV  58.80 Ry    7.67 a.u.   7.48  7.48  7.48*2*pi/ulx,y,z
   ENINI  =  800.0     initial cutoff
   ENAUG  =  627.1 eV  augmentation charge cutoff
   NELM   =    100;   NELMIN=  6; NELMDL= -8     # of ELM steps
[...]
   0.09907836 -0.09907836 -0.05944701       0.018
   0.07926269 -0.07926269 -0.03963134       0.018
   0.05944701 -0.05944701 -0.01981567       0.018
   0.03963134 -0.03963134 -0.00000000       0.009
   0.00000000 -0.00000000  0.07926269       0.005
  -0.01981567  0.01981567  0.09907836       0.018
  -0.03963134  0.03963134  0.11889403       0.018
  -0.05944701  0.05944701  0.13870970       0.018
   0.13870970 -0.13870970 -0.05944701       0.018
   0.11889403 -0.11889403 -0.03963134       0.018
   0.09907836 -0.09907836 -0.01981567       0.018
   0.07926269 -0.07926269 -0.00000000       0.009
  -0.00000000  0.00000000  0.11889403       0.005
  -0.01981567  0.01981567  0.13870970       0.018
  -0.03963134  0.03963134  0.15852537       0.018
   0.15852537 -0.15852537 -0.03963134       0.018
   0.13870970 -0.13870970 -0.01981567       0.018
   0.11889403 -0.11889403 -0.00000000       0.009
   0.00000000 -0.00000000  0.15852537       0.005
  -0.01981567  0.01981567  0.17834104       0.018
   0.17834104 -0.17834104 -0.01981567       0.018
   0.15852537 -0.15852537 -0.00000000       0.009
  -0.00000000  0.00000000  0.19815671       0.005
   0.19815671 -0.19815671 -0.00000000       0.009
   0.00000000  0.03963134  0.07926269       0.018
  -0.01981567  0.05944701  0.09907836       0.036
  -0.03963134  0.07926269  0.11889403       0.036
   0.15852537 -0.11889403 -0.07926269       0.036
   0.00000000  0.03963134  0.11889403       0.018
  -0.01981567  0.05944701  0.13870970       0.036
   0.17834104 -0.13870970 -0.05944701       0.036
   0.15852537 -0.11889403 -0.03963134       0.036
   0.13870970 -0.09907836 -0.01981567       0.036
   0.11889403 -0.07926269  0.00000000       0.018
   0.00000000  0.03963134  0.15852537       0.018
   0.19815671 -0.15852537 -0.03963134       0.036
   0.17834104 -0.13870970 -0.01981567       0.036
   0.15852537 -0.11889403  0.00000000       0.018
   0.21797238 -0.17834104 -0.01981567       0.018
   0.19815671 -0.15852537  0.00000000       0.018
   0.21797238 -0.13870970 -0.05944701       0.018
   0.19815671 -0.11889403 -0.03963134       0.036
   0.21797238 -0.13870970 -0.01981567       0.018
   0.19815671 -0.11889403  0.00000000       0.018

 k-points in reciprocal lattice and weights: GaN
   0.00000000  0.00000000  0.00000000       0.001
   0.09090909  0.00000000 -0.00000000       0.006
   0.18181818  0.00000000 -0.00000000       0.006
   0.27272727 -0.00000000  0.00000000       0.006
   0.36363636  0.00000000 -0.00000000       0.006
   0.45454545  0.00000000  0.00000000       0.006
   0.09090909  0.09090909 -0.00000000       0.005
   0.18181818  0.09090909 -0.00000000       0.018
   0.27272727  0.09090909 -0.00000000       0.018
   0.36363636  0.09090909 -0.00000000       0.018
   0.45454545  0.09090909 -0.00000000       0.018
  -0.45454545  0.09090909 -0.00000000       0.018
  -0.36363636  0.09090909 -0.00000000       0.018
  -0.27272727  0.09090909  0.00000000       0.018
  -0.18181818  0.09090909 -0.00000000       0.018
  -0.09090909  0.09090909  0.00000000       0.009
   0.18181818  0.18181818 -0.00000000       0.005
   0.27272727  0.18181818  0.00000000       0.018
   0.36363636  0.18181818 -0.00000000       0.018
   0.45454545  0.18181818  0.00000000       0.018
  -0.45454545  0.18181818 -0.00000000       0.018
  -0.36363636  0.18181818 -0.00000000       0.018
  -0.27272727  0.18181818 -0.00000000       0.018
  -0.18181818  0.18181818  0.00000000       0.009
   0.27272727  0.27272727 -0.00000000       0.005
   0.36363636  0.27272727 -0.00000000       0.018
   0.45454545  0.27272727  0.00000000       0.018
  -0.45454545  0.27272727  0.00000000       0.018
  -0.36363636  0.27272727 -0.00000000       0.018
  -0.27272727  0.27272727 -0.00000000       0.009
   0.36363636  0.36363636 -0.00000000       0.005
   0.45454545  0.36363636 -0.00000000       0.018
  -0.45454545  0.36363636 -0.00000000       0.018
  -0.36363636  0.36363636  0.00000000       0.009
   0.45454545  0.45454545 -0.00000000       0.005
  -0.45454545  0.45454545 -0.00000000       0.009
   0.27272727  0.18181818  0.09090909       0.018
   0.36363636  0.18181818  0.09090909       0.036
   0.45454545  0.18181818  0.09090909       0.036
  -0.45454545  0.18181818  0.09090909       0.036
   0.36363636  0.27272727  0.09090909       0.018
   0.45454545  0.27272727  0.09090909       0.036
  -0.45454545  0.27272727  0.09090909       0.036
  -0.36363636  0.27272727  0.09090909       0.036
  -0.27272727  0.27272727  0.09090909       0.036
  -0.18181818  0.27272727  0.09090909       0.018
   0.45454545  0.36363636  0.09090909       0.018
  -0.45454545  0.36363636  0.09090909       0.036
  -0.36363636  0.36363636  0.09090909       0.036
  -0.27272727  0.36363636  0.09090909       0.018
  -0.45454545  0.45454545  0.09090909       0.018
  -0.36363636  0.45454545  0.09090909       0.018
  -0.45454545  0.36363636  0.18181818       0.018
  -0.36363636  0.36363636  0.18181818       0.036
  -0.36363636  0.45454545  0.18181818       0.018
  -0.27272727  0.45454545  0.18181818       0.018

 position of ions in fractional coordinates (direct lattice)
   0.00000000  0.00000000  0.00000000
   0.25000000  0.25000000  0.25000000

 position of ions in cartesian coordinates  (Angst):
   0.00000000  0.00000000  0.00000000
   1.14693428  1.14693428  1.14693428

 k-point  1 :   0.0000 0.0000 0.0000  plane waves:    1243
 k-point  2 :   0.0909 0.0000-0.0000  plane waves:    1249
 k-point  3 :   0.1818 0.0000-0.0000  plane waves:    1254
 k-point  4 :   0.2727-0.0000 0.0000  plane waves:    1251
 k-point  5 :   0.3636 0.0000-0.0000  plane waves:    1242
 k-point  6 :   0.4545 0.0000 0.0000  plane waves:    1236
 k-point  7 :   0.0909 0.0909-0.0000  plane waves:    1251
 k-point  8 :   0.1818 0.0909-0.0000  plane waves:    1258
 k-point  9 :   0.2727 0.0909-0.0000  plane waves:    1247
 k-point 10 :   0.3636 0.0909-0.0000  plane waves:    1245
 k-point 11 :   0.4545 0.0909-0.0000  plane waves:    1234
 k-point 12 :  -0.4545 0.0909-0.0000  plane waves:    1230
 k-point 13 :  -0.3636 0.0909-0.0000  plane waves:    1237
 k-point 14 :  -0.2727 0.0909 0.0000  plane waves:    1247
 k-point 15 :  -0.1818 0.0909-0.0000  plane waves:    1244
 k-point 16 :  -0.0909 0.0909 0.0000  plane waves:    1249
 k-point 17 :   0.1818 0.1818-0.0000  plane waves:    1255
 k-point 18 :   0.2727 0.1818 0.0000  plane waves:    1253
 k-point 19 :   0.3636 0.1818-0.0000  plane waves:    1256
 k-point 20 :   0.4545 0.1818 0.0000  plane waves:    1243
 k-point 21 :  -0.4545 0.1818-0.0000  plane waves:    1228
 k-point 22 :  -0.3636 0.1818-0.0000  plane waves:    1242
 k-point 23 :  -0.2727 0.1818-0.0000  plane waves:    1242
 k-point 24 :  -0.1818 0.1818 0.0000  plane waves:    1253
 k-point 25 :   0.2727 0.2727-0.0000  plane waves:    1259
 k-point 26 :   0.3636 0.2727-0.0000  plane waves:    1248
 k-point 27 :   0.4545 0.2727 0.0000  plane waves:    1238
 k-point 28 :  -0.4545 0.2727 0.0000  plane waves:    1240
 k-point 29 :  -0.3636 0.2727-0.0000  plane waves:    1239
 k-point 30 :  -0.2727 0.2727-0.0000  plane waves:    1228
 k-point 31 :   0.3636 0.3636-0.0000  plane waves:    1250
 k-point 32 :   0.4545 0.3636-0.0000  plane waves:    1234
 k-point 33 :  -0.4545 0.3636-0.0000  plane waves:    1240
 k-point 34 :  -0.3636 0.3636 0.0000  plane waves:    1238
 k-point 35 :   0.4545 0.4545-0.0000  plane waves:    1242
 k-point 36 :  -0.4545 0.4545-0.0000  plane waves:    1242
 k-point 37 :   0.2727 0.1818 0.0909  plane waves:    1257
 k-point 38 :   0.3636 0.1818 0.0909  plane waves:    1247
 k-point 39 :   0.4545 0.1818 0.0909  plane waves:    1244
 k-point 40 :  -0.4545 0.1818 0.0909  plane waves:    1233
 k-point 41 :   0.3636 0.2727 0.0909  plane waves:    1250
 k-point 42 :   0.4545 0.2727 0.0909  plane waves:    1242
 k-point 43 :  -0.4545 0.2727 0.0909  plane waves:    1236
 k-point 44 :  -0.3636 0.2727 0.0909  plane waves:    1239
 k-point 45 :  -0.2727 0.2727 0.0909  plane waves:    1241
 k-point 46 :  -0.1818 0.2727 0.0909  plane waves:    1235
 k-point 47 :   0.4545 0.3636 0.0909  plane waves:    1243
 k-point 48 :  -0.4545 0.3636 0.0909  plane waves:    1235
 k-point 49 :  -0.3636 0.3636 0.0909  plane waves:    1238
 k-point 50 :  -0.2727 0.3636 0.0909  plane waves:    1237
 k-point 51 :  -0.4545 0.4545 0.0909  plane waves:    1234
 k-point 52 :  -0.3636 0.4545 0.0909  plane waves:    1240
 k-point 53 :  -0.4545 0.3636 0.1818  plane waves:    1237
 k-point 54 :  -0.3636 0.3636 0.1818  plane waves:    1225
 k-point 55 :  -0.3636 0.4545 0.1818  plane waves:    1227
 k-point 56 :  -0.2727 0.4545 0.1818  plane waves:    1233

 maximum and minimum number of plane-waves per node :       257      241

 maximum number of plane-waves:      1259
 maximum index in each direction:
   IXMAX=    7   IYMAX=    7   IZMAX=    7
   IXMIN=   -7   IYMIN=   -7   IZMIN=   -7

 parallel 3D FFT for wavefunctions:
    minimum data exchange during FFTs selected (reduces bandwidth)
 parallel 3D FFT for charge:
    minimum data exchange during FFTs selected (reduces bandwidth)

 Broyden mixing: mesh for mixing (old mesh)
   NGX = 15   NGY = 15   NGZ = 15
  (NGX  = 60   NGY  = 60   NGZ  = 60)
  gives a total of   3375 points

 initial charge density was supplied:
 charge density of overlapping atoms calculated
 number of electron       8.0000000 magnetization
 keeping initial charge density in first step

 Maximum index for augmentation-charges        62421 (set IRDMAX)

 First call to EWALD:  gamma=   0.613
 Maximum number of real-space cells 3x 3x 3
 Maximum number of reciprocal cells 3x 3x 3

--------------------------------------- Iteration      1(   1)  ---------------------------------------

 eigenvalue-minimisations  :   896
 total energy-change (2. order) : 0.2853307E+02  (-0.5745934E+03)
 number of electron       8.0000000 magnetization
 augmentation part        8.0000000 magnetization

 Free energy of the ion-electron system (eV)
  alpha Z        PSCENC =        26.84662234
  Ewald energy   TEWEN  =      -282.39919506
  -Hartree energ DENC   =       -63.32590025
  -exchange      EXHF   =         0.00000000
  -V(xc)+E(xc)   XCENC  =         0.37672965
  PAW double counting   =       266.99849132     -244.49430258
  entropy T*S    EENTRO =        -0.00007315
  eigenvalues    EBANDS =         1.11620267
  atomic energy  EATOM  =       323.41449014
  Solvation  Ediel_sol  =         0.00000000
  free energy    TOTEN  =        28.53306508 eV

  energy without entropy =       28.53313823  energy(sigma->0) =       28.53310165

[...]

 eigenvalue-minimisations  :  1320
 total energy-change (2. order) :-0.4162636E+02  (-0.4079918E+02)
 number of electron       8.0000000 magnetization
 augmentation part        8.0000000 magnetization

[...]

 Broyden mixing:
  rms(total) = 0.88895E+00    rms(broyden)= 0.88894E+00
  rms(prec ) = 0.30134E+01
  weight for this iteration     100.00

[...]

 eigenvalues of (default mixing * dielectric matrix)
  average eigenvalue GAMMA=   1.6506
  1.6506

[...]

 eigenvalue-minimisations  :  1216
 total energy-change (2. order) :-0.2210564E-06  (-0.2734642E-06)
 number of electron       8.0000000 magnetization
 augmentation part       -0.2169544 magnetization

 Broyden mixing:
  rms(total) = 0.48652E-03    rms(broyden)= 0.48651E-03
  rms(prec ) = 0.89415E-03
  weight for this iteration     100.00

 eigenvalues of (default mixing * dielectric matrix)
  average eigenvalue GAMMA=   2.6934
  4.8720  4.8720  4.5499  1.6242  1.0033  0.9893  0.9429

[...]

--------------------------------------- Iteration      1(  16)  ---------------------------------------

 eigenvalue-minimisations  :  1168
 total energy-change (2. order) : 0.7643860E-07  (-0.8400556E-07)
 number of electron       8.0000000 magnetization
 augmentation part       -0.2169544 magnetization

 Free energy of the ion-electron system (eV)
  alpha Z        PSCENC =        26.84662234
  Ewald energy   TEWEN  =      -282.39919506
  -Hartree energ DENC   =       -78.88907053
  -exchange      EXHF   =         0.00000000
  -V(xc)+E(xc)   XCENC  =         1.81025699
  PAW double counting   =       799.30592410     -777.44217724
  entropy T*S    EENTRO =         0.00000000
  eigenvalues    EBANDS =       -24.81024342
  atomic energy  EATOM  =       323.41449014
  Solvation  Ediel_sol  =         0.00000000
  free energy    TOTEN  =       -12.16339269 eV

  energy without entropy =      -12.16339269  energy(sigma->0) =      -12.16339269

 average (electrostatic) potential at core
  the test charge radii are     1.2767  0.7089
  (the norm of the test charge is              1.0000)
       1 -13.3710       2 -64.7140

 E-fermi :   3.0737     XC(G=0): -10.6242     alpha+bet :-10.4813

 k-point     1 :       0.0000    0.0000    0.0000
  band No.  band energies     occupation
      1     -12.9216      2.00000
      2       2.5038      2.00000
      3       2.5038      2.00000
      4       2.5038      2.00000
      5       3.9640      0.00000
      6      12.5825      0.00000
      7      12.5825      0.00000
      8      12.5825      0.00000

[...]

 k-point    56 :      -0.2727    0.4545    0.1818
  band No.  band energies     occupation
      1     -10.0832      2.00000
      2      -2.9516      2.00000
      3      -1.2398      2.00000
      4      -0.3946      2.00000
      5       8.6111      0.00000
      6      10.3373      0.00000
      7      12.4399      0.00000
      8      13.7000      0.00000

 soft charge-density along one line, spin component           1
         0         1         2         3         4         5         6         7         8         9
 total charge-density along one line

------------------------ aborting loop because EDIFF is reached ----------------------------------------

 total charge

# of ion       s       p       d       tot
    1        1.002   1.342   0.351   2.695
    2        1.226   2.441   0.000   3.667
tot          2.228   3.783   0.351   6.362

  FORCE on cell =-STRESS in cart. coord.  units (eV):
  Direction    XX          YY          ZZ          XY          YZ          ZX
  Alpha Z    26.84662    26.84662    26.84662
  Ewald     -94.13310   -94.13310   -94.13310     0.00000     0.00000    -0.00000
  Hartree    26.29621    26.29621    26.29621     0.00000     0.00000     0.00000
  E(xc)     -33.07102   -33.07102   -33.07102     0.00000     0.00000     0.00000
  Local     -42.12184   -42.12184   -42.12184     0.00000     0.00000     0.00000
  n-local    -2.56865    -2.53769    -1.61668    -1.08322     0.79260    -0.40556
  augment     3.76976     3.76976     3.76976    -0.00000    -0.00000    -0.00000
  Kinetic   117.10776   115.43633   111.42382     5.10974    -2.98344     1.90113
  Fock        0.00000     0.00000     0.00000     0.00000     0.00000     0.00000
  Total       0.00159     0.00159     0.00159     0.00000     0.00000    -0.00000
  in kB       0.10560     0.10560     0.10560     0.00000     0.00000    -0.00000

 VOLUME and BASIS-vectors are now :
  energy-cutoff  :      800.00
  volume of cell :       24.14
      direct lattice vectors                 reciprocal lattice vectors
     0.000000000  2.293868561  2.293868561    -0.217972385  0.217972385  0.217972385
     2.293868561  0.000000000  2.293868561     0.217972385 -0.217972385  0.217972385
     2.293868561  2.293868561  0.000000000     0.217972385  0.217972385 -0.217972385

  length of vectors
     3.244020029  3.244020029  3.244020029     0.377539245  0.377539245  0.377539245

 FORCES acting on ions
    electron-ion (+dipol)            ewald-force                    non-local-force                 convergence-correction
   -.160E-07 -.160E-07 -.153E-07   -.329E-16 0.164E-14 -.164E-14   0.441E-17 0.441E-17 0.455E-17   -.624E-10 -.624E-10 -.624E-10
   -.282E-08 -.282E-08 -.239E-08   0.330E-15 -.181E-14 0.150E-14   -.857E-17 -.155E-16 -.779E-17   -.290E-10 -.290E-10 -.290E-10
   -.188E-07 -.188E-07 -.176E-07   0.297E-15 -.175E-15 -.132E-15   -.416E-17 -.111E-16 -.324E-17   -.914E-10 -.914E-10 -.914E-10

 POSITION                                       TOTAL-FORCE (eV/Angst)
      0.00000      0.00000      0.00000         0.000000      0.000000      0.000000
      1.14693      1.14693      1.14693        -0.000000     -0.000000     -0.000000
    total drift:                               -0.000000     -0.000000     -0.000000

  FREE ENERGIE OF THE ION-ELECTRON SYSTEM (eV)
  free  energy   TOTEN  =       -12.16339269 eV

  energy  without entropy=      -12.16339269  energy(sigma->0) =      -12.16339269

 reached required accuracy - stopping structural energy minimisation

 total charge

# of ion       s       p       d       tot
    1        1.002   1.342   0.351   2.695
    2        1.226   2.441   0.000   3.667
tot          2.228   3.783   0.351   6.362