 vasp.5.4.4.18Apr17-6-g9f103f2a35 (build Apr 10 2018 17:34:00) complex

 executed on             LinuxIFC date 2018.10.04  08:04:33

 INCAR:
 POTCAR:    PAW_PBE Al 04Jan2001
 POTCAR:    PAW_PBE P 06Sep2000
 POTCAR:    PAW_PBE Al 04Jan2001

 POTCAR:    PAW_PBE P 06Sep2000

  PAW_PBE Al 04Jan2001                  :
  PAW_PBE P 06Sep2000                   :

 POSCAR: AlP
  positions in direct lattice
  velocities in cartesian coordinates
 exchange correlation table for  LEXCH =        8
   RHO(1)=    0.500       N(1)  =     2000
   RHO(2)=  100.500       N(2)  =     4000

 ion  position               nearest neighbor table
   1  0.000  0.000  0.000-   2 2.38   2 2.38   2 2.38   2 2.38
   2  0.250  0.250  0.250-   1 2.38   1 2.38   1 2.38   1 2.38

  LATTYP: Found a face centered cubic cell.
 ALAT       =     5.5055924686

  Lattice vectors:

 A1 = (   0.0000000000,   2.7527962343,   2.7527962343)
 A2 = (   2.7527962343,   0.0000000000,   2.7527962343)
 A3 = (   2.7527962343,   2.7527962343,   0.0000000000)

Analysis of symmetry for initial positions (statically):
 Subroutine PRICEL returns:
 Original cell was already a primitive cell.

 Routine SETGRP: Setting up the symmetry group for a
 face centered cubic supercell.

 Subroutine GETGRP returns: Found 24 space group operations
 (whereof 24 operations were pure point group operations)
 out of a pool of 48 trial point group operations.

The static configuration has the point symmetry T_d .

Analysis of symmetry for dynamics (positions and initial velocities):
 Subroutine PRICEL returns:
 Original cell was already a primitive cell.

 Routine SETGRP: Setting up the symmetry group for a
 face centered cubic supercell.

 Subroutine GETGRP returns: Found 24 space group operations
 (whereof 24 operations were pure point group operations)
 out of a pool of 48 trial point group operations.

The dynamic configuration has the point symmetry T_d .

 Subroutine INISYM returns: Found 24 space group operations
 (whereof 24 operations are pure point group operations),
 and found     1 'primitive' translations

 KPOINTS: AlP

Automatic generation of k-mesh.
 generate k-points for:    9    9    9
Space group operators:
 irot       det(A)        alpha          n_x          n_y          n_z        tau_x        tau_y        tau_z
    1     1.000000     0.000000     1.000000     0.000000     0.000000     0.000000     0.000000     0.000000
    2     1.000000   120.000000    -0.577350    -0.577350    -0.577350     0.000000     0.000000     0.000000
    3     1.000000   120.000000     0.577350     0.577350     0.577350     0.000000     0.000000     0.000000
    4    -1.000000    90.000000     0.000000     0.000000    -1.000000     0.000000     0.000000     0.000000
    5    -1.000000   180.000000     0.000000     0.707107     0.707107     0.000000     0.000000     0.000000
    6    -1.000000    90.000000    -0.000000     1.000000    -0.000000     0.000000     0.000000     0.000000
    7     1.000000   180.000000    -0.000000     0.000000    -1.000000     0.000000     0.000000     0.000000
    8     1.000000   120.000000    -0.577350     0.577350     0.577350     0.000000     0.000000     0.000000
    9     1.000000   120.000000    -0.577350     0.577350    -0.577350     0.000000     0.000000     0.000000
   10    -1.000000    90.000000     0.000000     0.000000     1.000000     0.000000     0.000000     0.000000
   11    -1.000000    90.000000    -1.000000     0.000000     0.000000     0.000000     0.000000     0.000000
   12    -1.000000   180.000000     0.707107     0.000000     0.707107     0.000000     0.000000     0.000000
   13     1.000000   120.000000     0.577350    -0.577350     0.577350     0.000000     0.000000     0.000000
   14     1.000000   120.000000    -0.577350    -0.577350     0.577350     0.000000     0.000000     0.000000
   15     1.000000   180.000000     1.000000     0.000000     0.000000     0.000000     0.000000     0.000000
   16    -1.000000    90.000000     0.000000    -1.000000    -0.000000     0.000000     0.000000     0.000000
   17    -1.000000   180.000000     0.707107     0.707107    -0.000000     0.000000     0.000000     0.000000
   18    -1.000000    90.000000     1.000000     0.000000     0.000000     0.000000     0.000000     0.000000
   19     1.000000   120.000000     0.577350    -0.577350    -0.577350     0.000000     0.000000     0.000000
   20     1.000000   180.000000    -0.000000    -1.000000     0.000000     0.000000     0.000000     0.000000
   21     1.000000   120.000000     0.577350     0.577350    -0.577350     0.000000     0.000000     0.000000
   22    -1.000000   180.000000    -0.000000    -0.707107     0.707107     0.000000     0.000000     0.000000
   23    -1.000000   180.000000     0.707107    -0.707107     0.000000     0.000000     0.000000     0.000000
   24    -1.000000   180.000000     0.707107     0.000000    -0.707107     0.000000     0.000000     0.000000

 Subroutine IBZKPT returns following result:

 Found     35 irreducible k-points:

 Following reciprocal coordinates:
            Coordinates               Weight
  0.000000  0.000000  0.000000      1.000000
  0.111111 -0.000000 -0.000000      8.000000
  0.222222  0.000000 -0.000000      8.000000
  0.333333 -0.000000 -0.000000      8.000000
  0.444444  0.000000 -0.000000      8.000000
  0.111111  0.111111 -0.000000      6.000000
  0.222222  0.111111 -0.000000     24.000000
  0.333333  0.111111 -0.000000     24.000000
  0.444444  0.111111 -0.000000     24.000000
 -0.444444  0.111111 -0.000000     24.000000
 -0.333333  0.111111 -0.000000     24.000000
 -0.222222  0.111111  0.000000     24.000000
 -0.111111  0.111111 -0.000000     12.000000
  0.222222  0.222222 -0.000000      6.000000
  0.333333  0.222222 -0.000000     24.000000
  0.444444  0.222222 -0.000000     24.000000
 -0.444444  0.222222  0.000000     24.000000
 -0.333333  0.222222 -0.000000     24.000000
 -0.222222  0.222222  0.000000     12.000000
  0.333333  0.333333 -0.000000      6.000000
  0.444444  0.333333 -0.000000     24.000000
 -0.444444  0.333333 -0.000000     24.000000
 -0.333333  0.333333  0.000000     12.000000
  0.444444  0.444444 -0.000000      6.000000
 -0.444444  0.444444  0.000000     12.000000
  0.333333  0.222222  0.111111     24.000000
  0.444444  0.222222  0.111111     48.000000
 -0.444444  0.222222  0.111111     48.000000
  0.444444  0.333333  0.111111     24.000000
 -0.444444  0.333333  0.111111     48.000000
 -0.333333  0.333333  0.111111     48.000000
 -0.222222  0.333333  0.111111     24.000000
 -0.444444  0.444444  0.111111     24.000000
 -0.333333  0.444444  0.111111     24.000000
 -0.333333  0.444444  0.222222     24.000000

 Following cartesian coordinates:
            Coordinates               Weight
  0.000000  0.000000  0.000000      1.000000
 -0.020181  0.020181  0.020181      8.000000
 -0.040363  0.040363  0.040363      8.000000
 -0.060544  0.060544  0.060544      8.000000
 -0.080726  0.080726  0.080726      8.000000
  0.000000  0.000000  0.040363      6.000000
 -0.020181  0.020181  0.060544     24.000000
 -0.040363  0.040363  0.080726     24.000000
 -0.060544  0.060544  0.100907     24.000000
  0.100907 -0.100907 -0.060544     24.000000
  0.080726 -0.080726 -0.040363     24.000000
  0.060544 -0.060544 -0.020181     24.000000
  0.040363 -0.040363  0.000000     12.000000
  0.000000  0.000000  0.080726      6.000000
 -0.020181  0.020181  0.100907     24.000000
 -0.040363  0.040363  0.121089     24.000000
  0.121089 -0.121089 -0.040363     24.000000
  0.100907 -0.100907 -0.020181     24.000000
  0.080726 -0.080726 -0.000000     12.000000
  0.000000 -0.000000  0.121089      6.000000
 -0.020181  0.020181  0.141270     24.000000
  0.141270 -0.141270 -0.020181     24.000000
  0.121089 -0.121089  0.000000     12.000000
  0.000000  0.000000  0.161452      6.000000
  0.161452 -0.161452 -0.000000     12.000000
 -0.000000  0.040363  0.080726     24.000000
 -0.020181  0.060544  0.100907     48.000000
  0.141270 -0.100907 -0.060544     48.000000
 -0.000000  0.040363  0.121089     24.000000
  0.161452 -0.121089 -0.040363     48.000000
  0.141270 -0.100907 -0.020181     48.000000
  0.121089 -0.080726  0.000000     24.000000
  0.181633 -0.141270 -0.020181     24.000000
  0.161452 -0.121089  0.000000     24.000000
  0.181633 -0.100907 -0.020181     24.000000

 SYSTEM =  AlP
 POSCAR =  AlP

 Startparameter for this run:
   NWRITE =      1    write-flag & timer
   PREC   = accura    normal or accurate (medium, high low for compatibility)
   ISTART =      0    job   : 0-new  1-cont  2-samecut
   ICHARG =      2    charge: 1-file 2-atom 10-const
   ISPIN  =      1    spin polarized calculation?
   LNONCOLLINEAR =      F non collinear calculations
   LSORBIT =      F    spin-orbit coupling
   INIWAV =      1    electr: 0-lowe 1-rand  2-diag
   LASPH  =      T    aspherical Exc in radial PAW
   METAGGA=      F    non-selfconsistent MetaGGA calc.

 Electronic Relaxation 1
   ENCUT  =  510.0 eV  37.48 Ry    6.12 a.u.   7.17  7.17  7.17*2*pi/ulx,y,z
   ENINI  =  510.0     initial cutoff
   ENAUG  =  342.9 eV  augmentation charge cutoff
   NELM   =    100;   NELMIN=  6; NELMDL= -8     # of ELM steps
   EDIFF  = 0.1E-06   stopping-criterion for ELM
   LREAL  =      F    real-space projection
   NLSPLINE    = F    spline interpolate recip. space projectors
   LCOMPAT=      F    compatible to vasp.4.4
   GGA_COMPAT  = T    GGA compatible to vasp.4.4-vasp.4.6
   LMAXPAW     = -100 max onsite density
   LMAXMIX     =    6 max onsite mixed and CHGCAR
   VOSKOWN=      0    Vosko Wilk Nusair interpolation
   ROPT   =    0.00000   0.00000
 Ionic relaxation
   EDIFFG = -.1E-02   stopping-criterion for IOM
   NSW    =    100    number of steps for IOM
   NBLOCK =      1;   KBLOCK =    100    inner block; outer block
   IBRION =      2    ionic relax: 0-MD 1-quasi-New 2-CG
   NFREE  =      1    steps in history (QN), initial steepest desc. (CG)
   ISIF   =      3    stress and relaxation
   IWAVPR =     11    prediction:  0-non 1-charg 2-wave 3-comb
   ISYM   =      2    0-nonsym 1-usesym 2-fastsym
   LCORR  =      T    Harris-Foulkes like correction to forces

   POTIM  = 0.5000    time-step for ionic-motion
   TEIN   =    0.0    initial temperature
   TEBEG  =    0.0;   TEEND  =   0.0 temperature during run
   SMASS  =  -3.00    Nose mass-parameter (am)
   estimated Nose-frequenzy (Omega)   =  0.10E-29 period in steps =****** mass=  -0.346E-27a.u.
   SCALEE = 1.0000    scale energy and forces
   NPACO  =    256;   APACO  = 16.0  distance and # of slots for P.C.
   PSTRESS=    0.0 pullay stress

  Mass of Ions in am
   POMASS =  26.98 30.97
  Ionic Valenz
   ZVAL   =   3.00  5.00
  Atomic Wigner-Seitz radii
  virtual crystal weights
   VCA    =   1.00  1.00
   NELECT =       8.0000    total number of electrons
   NUPDOWN=      -1.0000    fix difference up-down

 DOS related values:
   EMIN   =  10.00;   EMAX   =-10.00  energy-range for DOS
   EFERMI =   0.00
   ISMEAR =     0;   SIGMA  =   0.01  broadening in eV -4-tet -1-fermi 0-gaus

 Electronic relaxation 2 (details)
   IALGO  =     38    algorithm
   LDIAG  =      T    sub-space diagonalisation (order eigenvalues)
[...]
   IDIPOL =      0    1-x, 2-y, 3-z, 4-all directions
   EPSILON=  1.0000000 bulk dielectric constant

 Exchange correlation treatment:
   GGA     =    --    GGA type
   VOSKOWN=      0    Vosko Wilk Nusair interpolation
   LHFCALC =     F    Hartree Fock is set to
   LHFONE  =     F    Hartree Fock one center treatment
   AEXX    =    0.0000 exact exchange contribution

 Linear response parameters
   LEPSILON=     F    determine dielectric tensor
   LRPA    =     F    only Hartree local field effects (RPA)
   LNABLA  =     F    use nabla operator in PAW spheres
   LVEL    =     F    velocity operator in full k-point grid
   LINTERFAST=   F  fast interpolation
   KINTER  =     0    interpolate to denser k-point grid
   CSHIFT  =0.1000    complex shift for real part using Kramers Kronig
   OMEGAMAX=  -1.0    maximum frequency
   DEG_THRESHOLD= 0.2000000E-02 threshold for treating states as degnerate
   RTIME   =   -0.100 relaxation time in fs
  (WPLASMAI=    0.000 imaginary part of plasma frequency in eV, 0.658/RTIME)
   DFIELD  = 0.0000000 0.0000000 0.0000000 field for delta impulse in time

 Orbital magnetization related:
   ORBITALMAG=     F  switch on orbital magnetization
   LCHIMAG   =     F  perturbation theory with respect to B field
   DQ        =  0.001000  dq finite difference perturbation B field
   LLRAUG    =     F  two centre corrections for induced B field

 conjugate gradient relaxation of ions
 charge density and potential will be updated during run
 non-spin polarized calculation
 Variant of blocked Davidson
 Davidson routine will perform the subspace rotation
 perform sub-space diagonalisation
    after iterative eigenvector-optimisation
 modified Broyden-mixing scheme, WC =      100.0
 initial mixing is a Kerker type mixing with AMIX =  0.2000 and BMIX =      0.0010
 Hartree-type preconditioning will be used
 using additional bands            4
 reciprocal scheme for non local part
 use partial core corrections
 calculate Harris-corrections to forces
   (improved forces if not selfconsistent)
 use gradient corrections
 use of overlap-Matrix (Vanderbilt PP)
 Gauss-broadening in eV      SIGMA  =   0.01

  energy-cutoff  :      510.00
  volume of cell :       41.72
      direct lattice vectors                 reciprocal lattice vectors
     0.000000000  2.752796234  2.752796234    -0.181633495  0.181633495  0.181633495
     2.752796234  0.000000000  2.752796234     0.181633495 -0.181633495  0.181633495
     2.752796234  2.752796234  0.000000000     0.181633495  0.181633495 -0.181633495

  length of vectors
     3.893041769  3.893041769  3.893041769     0.314598441  0.314598441  0.314598441

 k-points in units of 2pi/SCALE and weight: AlP
   0.00000000  0.00000000  0.00000000       0.001
  -0.02018150  0.02018150  0.02018150       0.011
  -0.04036300  0.04036300  0.04036300       0.011
  -0.06054450  0.06054450  0.06054450       0.011
  -0.08072600  0.08072600  0.08072600       0.011
  -0.00000000 -0.00000000  0.04036300       0.008
  -0.02018150  0.02018150  0.06054450       0.033
  -0.04036300  0.04036300  0.08072600       0.033
  -0.06054450  0.06054450  0.10090750       0.033
   0.10090750 -0.10090750 -0.06054450       0.033
   0.08072600 -0.08072600 -0.04036300       0.033
   0.06054450 -0.06054450 -0.02018150       0.033
   0.04036300 -0.04036300  0.00000000       0.016
  -0.00000000  0.00000000  0.08072600       0.008
  -0.02018150  0.02018150  0.10090750       0.033
  -0.04036300  0.04036300  0.12108900       0.033
   0.12108900 -0.12108900 -0.04036300       0.033
   0.10090750 -0.10090750 -0.02018150       0.033
   0.08072600 -0.08072600 -0.00000000       0.016
   0.00000000 -0.00000000  0.12108900       0.008
  -0.02018150  0.02018150  0.14127050       0.033
   0.14127050 -0.14127050 -0.02018150       0.033
   0.12108900 -0.12108900  0.00000000       0.016
  -0.00000000  0.00000000  0.16145200       0.008
   0.16145200 -0.16145200 -0.00000000       0.016
  -0.00000000  0.04036300  0.08072600       0.033
  -0.02018150  0.06054450  0.10090750       0.066
   0.14127050 -0.10090750 -0.06054450       0.066
  -0.00000000  0.04036300  0.12108900       0.033
   0.16145200 -0.12108900 -0.04036300       0.066
   0.14127050 -0.10090750 -0.02018150       0.066
   0.12108900 -0.08072600  0.00000000       0.033
   0.18163349 -0.14127050 -0.02018150       0.033
   0.16145200 -0.12108900  0.00000000       0.033
   0.18163349 -0.10090750 -0.02018150       0.033

 k-points in reciprocal lattice and weights: AlP
   0.00000000  0.00000000  0.00000000       0.001
   0.11111111 -0.00000000 -0.00000000       0.011
   0.22222222  0.00000000 -0.00000000       0.011
   0.33333333 -0.00000000 -0.00000000       0.011
   0.44444444  0.00000000 -0.00000000       0.011
   0.11111111  0.11111111 -0.00000000       0.008
   0.22222222  0.11111111 -0.00000000       0.033
   0.33333333  0.11111111 -0.00000000       0.033
   0.44444444  0.11111111 -0.00000000       0.033
  -0.44444444  0.11111111 -0.00000000       0.033
  -0.33333333  0.11111111 -0.00000000       0.033
  -0.22222222  0.11111111  0.00000000       0.033
  -0.11111111  0.11111111 -0.00000000       0.016
   0.22222222  0.22222222 -0.00000000       0.008
   0.33333333  0.22222222 -0.00000000       0.033
   0.44444444  0.22222222 -0.00000000       0.033
  -0.44444444  0.22222222  0.00000000       0.033
  -0.33333333  0.22222222 -0.00000000       0.033
  -0.22222222  0.22222222  0.00000000       0.016
   0.33333333  0.33333333 -0.00000000       0.008
   0.44444444  0.33333333 -0.00000000       0.033
  -0.44444444  0.33333333 -0.00000000       0.033
  -0.33333333  0.33333333  0.00000000       0.016
   0.44444444  0.44444444 -0.00000000       0.008
  -0.44444444  0.44444444  0.00000000       0.016
   0.33333333  0.22222222  0.11111111       0.033
   0.44444444  0.22222222  0.11111111       0.066
  -0.44444444  0.22222222  0.11111111       0.066
   0.44444444  0.33333333  0.11111111       0.033
  -0.44444444  0.33333333  0.11111111       0.066
  -0.33333333  0.33333333  0.11111111       0.066
  -0.22222222  0.33333333  0.11111111       0.033
  -0.44444444  0.44444444  0.11111111       0.033
  -0.33333333  0.44444444  0.11111111       0.033
  -0.33333333  0.44444444  0.22222222       0.033

 position of ions in fractional coordinates (direct lattice)
   0.00000000  0.00000000  0.00000000
   0.25000000  0.25000000  0.25000000

 position of ions in cartesian coordinates  (Angst):
   0.00000000  0.00000000  0.00000000
   1.37639812  1.37639812  1.37639812

 k-point  1 :   0.0000 0.0000 0.0000  plane waves:    1067
 k-point  2 :   0.1111-0.0000-0.0000  plane waves:    1082
 k-point  3 :   0.2222 0.0000-0.0000  plane waves:    1089
 k-point  4 :   0.3333-0.0000-0.0000  plane waves:    1089
 k-point  5 :   0.4444 0.0000-0.0000  plane waves:    1086
 k-point  6 :   0.1111 0.1111-0.0000  plane waves:    1078
 k-point  7 :   0.2222 0.1111-0.0000  plane waves:    1093
 k-point  8 :   0.3333 0.1111-0.0000  plane waves:    1086
 k-point  9 :   0.4444 0.1111-0.0000  plane waves:    1099
 k-point 10 :  -0.4444 0.1111-0.0000  plane waves:    1096
 k-point 11 :  -0.3333 0.1111-0.0000  plane waves:    1097
 k-point 12 :  -0.2222 0.1111 0.0000  plane waves:    1089
 k-point 13 :  -0.1111 0.1111-0.0000  plane waves:    1095
 k-point 14 :   0.2222 0.2222-0.0000  plane waves:    1090
 k-point 15 :   0.3333 0.2222-0.0000  plane waves:    1083
 k-point 16 :   0.4444 0.2222-0.0000  plane waves:    1094
 k-point 17 :  -0.4444 0.2222 0.0000  plane waves:    1089
 k-point 18 :  -0.3333 0.2222-0.0000  plane waves:    1092
 k-point 19 :  -0.2222 0.2222 0.0000  plane waves:    1091
 k-point 20 :   0.3333 0.3333-0.0000  plane waves:    1078
 k-point 21 :   0.4444 0.3333-0.0000  plane waves:    1082
 k-point 22 :  -0.4444 0.3333-0.0000  plane waves:    1100
 k-point 23 :  -0.3333 0.3333 0.0000  plane waves:    1113
 k-point 24 :   0.4444 0.4444-0.0000  plane waves:    1094
 k-point 25 :  -0.4444 0.4444 0.0000  plane waves:    1100
 k-point 26 :   0.3333 0.2222 0.1111  plane waves:    1088
 k-point 27 :   0.4444 0.2222 0.1111  plane waves:    1092
 k-point 28 :  -0.4444 0.2222 0.1111  plane waves:    1095
 k-point 29 :   0.4444 0.3333 0.1111  plane waves:    1078
 k-point 30 :  -0.4444 0.3333 0.1111  plane waves:    1090
 k-point 31 :  -0.3333 0.3333 0.1111  plane waves:    1091
 k-point 32 :  -0.2222 0.3333 0.1111  plane waves:    1096
 k-point 33 :  -0.4444 0.4444 0.1111  plane waves:    1092
 k-point 34 :  -0.3333 0.4444 0.1111  plane waves:    1096
 k-point 35 :  -0.3333 0.4444 0.2222  plane waves:    1100

 maximum and minimum number of plane-waves per node :       230      205

 maximum number of plane-waves:      1113
 maximum index in each direction:
   IXMAX=    7   IYMAX=    7   IZMAX=    7
   IXMIN=   -7   IYMIN=   -7   IZMIN=   -7

 parallel 3D FFT for wavefunctions:
    minimum data exchange during FFTs selected (reduces bandwidth)
 parallel 3D FFT for charge:
    minimum data exchange during FFTs selected (reduces bandwidth)

 Broyden mixing: mesh for mixing (old mesh)
   NGX = 15   NGY = 15   NGZ = 15
  (NGX  = 60   NGY  = 60   NGZ  = 60)
  gives a total of   3375 points

 initial charge density was supplied:
 charge density of overlapping atoms calculated
 number of electron       8.0000000 magnetization
 keeping initial charge density in first step

 Maximum index for augmentation-charges        19371 (set IRDMAX)

 First call to EWALD:  gamma=   0.511
 Maximum number of real-space cells 3x 3x 3
 Maximum number of reciprocal cells 3x 3x 3

--------------------------------------- Iteration      1(   1)  ---------------------------------------

 eigenvalue-minimisations  :   560
 total energy-change (2. order) : 0.1309435E+02  (-0.3194484E+03)
 number of electron       8.0000000 magnetization
 augmentation part        8.0000000 magnetization

 Free energy of the ion-electron system (eV)
  alpha Z        PSCENC =         3.63030981
  Ewald energy   TEWEN  =      -235.31950059
  -Hartree energ DENC   =       -19.87972382
  -exchange      EXHF   =         0.00000000
  -V(xc)+E(xc)   XCENC  =       -23.24686708
  PAW double counting   =       205.96018703     -165.84420087
  entropy T*S    EENTRO =        -0.00009899
  eigenvalues    EBANDS =        18.21396288
  atomic energy  EATOM  =       229.58028278
  Solvation  Ediel_sol  =         0.00000000
  free energy    TOTEN  =        13.09435114 eV

  energy without entropy =       13.09445013  energy(sigma->0) =       13.09440064

[...]

 eigenvalue-minimisations  :   808
 total energy-change (2. order) :-0.2328184E+02  (-0.2265671E+02)
 number of electron       8.0000000 magnetization
 augmentation part        8.0000000 magnetization

[...]

 Broyden mixing:
  rms(total) = 0.44109E+00    rms(broyden)= 0.44109E+00
  rms(prec ) = 0.11100E+01
  weight for this iteration     100.00

[...]

 eigenvalues of (default mixing * dielectric matrix)
  average eigenvalue GAMMA=   3.3750
  3.3750

[...]

 eigenvalue-minimisations  :   592
 total energy-change (2. order) : 0.1051762E-05  (-0.6717817E-06)
 number of electron       8.0000000 magnetization
 augmentation part       -0.5512569 magnetization

 Broyden mixing:
  rms(total) = 0.37554E-03    rms(broyden)= 0.37554E-03
  rms(prec ) = 0.40143E-03
  weight for this iteration     100.00

 eigenvalues of (default mixing * dielectric matrix)
  average eigenvalue GAMMA=   2.6571
  5.5598  4.8998  3.8903  2.3254  1.6247  1.0102  1.0102  0.9360

[...]

--------------------------------------- Iteration      1(  17)  ---------------------------------------

 eigenvalue-minimisations  :   672
 total energy-change (2. order) :-0.2109942E-07  (-0.1993860E-07)
 number of electron       8.0000000 magnetization
 augmentation part       -0.5512569 magnetization

 Free energy of the ion-electron system (eV)
  alpha Z        PSCENC =         3.63030981
  Ewald energy   TEWEN  =      -235.31950059
  -Hartree energ DENC   =       -25.44114793
  -exchange      EXHF   =         0.00000000
  -V(xc)+E(xc)   XCENC  =       -22.49033041
  PAW double counting   =       740.28923719     -700.38363683
  entropy T*S    EENTRO =         0.00000000
  eigenvalues    EBANDS =        -0.24263420
  atomic energy  EATOM  =       229.58028278
  Solvation  Ediel_sol  =         0.00000000
  free energy    TOTEN  =       -10.37742018 eV

  energy without entropy =      -10.37742018  energy(sigma->0) =      -10.37742018

 average (electrostatic) potential at core
  the test charge radii are     1.0406  0.9587
  (the norm of the test charge is              1.0000)
       1 -75.3250       2 -82.8125

 E-fermi :   4.9992     XC(G=0):  -9.1123     alpha+bet :-11.1758

 k-point     1 :       0.0000    0.0000    0.0000
  band No.  band energies     occupation
      1      -7.0098      2.00000
      2       4.3542      2.00000
      3       4.3542      2.00000
      4       4.3542      2.00000
      5       7.4475      0.00000
      6       8.8809      0.00000
      7       8.8809      0.00000
      8       8.8809      0.00000

[...]

 k-point    35 :      -0.3333    0.4444    0.2222
  band No.  band energies     occupation
      1      -4.7742      2.00000
      2      -0.4862      2.00000
      3       1.2302      2.00000
      4       1.8899      2.00000
      5       8.5181      0.00000
      6       9.7597      0.00000
      7      10.1845      0.00000
      8      11.7707      0.00000

 soft charge-density along one line, spin component           1
         0         1         2         3         4         5         6         7         8         9
 total charge-density along one line

------------------------ aborting loop because EDIFF is reached ----------------------------------------

 total charge

# of ion       s       p       d       tot
    1        0.394   0.375   0.000   0.769
    2        1.010   1.580   0.000   2.591
tot          1.404   1.955   0.000   3.360

  FORCE on cell =-STRESS in cart. coord.  units (eV):
  Direction    XX          YY          ZZ          XY          YZ          ZX
  Alpha Z     3.63031     3.63031     3.63031
  Ewald     -78.43987   -78.43987   -78.43987     0.00000     0.00000    -0.00000
  Hartree     8.48018     8.48018     8.48018     0.00000     0.00000     0.00000
  E(xc)     -25.57259   -25.57259   -25.57259     0.00000     0.00000     0.00000
  Local     -37.36212   -37.36212   -37.36212     0.00000     0.00000     0.00000
  n-local    76.22995    77.27353    72.58871     2.02320    -1.38494     0.71243
  augment   -11.18914   -11.18914   -11.18914    -0.00000    -0.00000    -0.00000
  Kinetic    67.01572    65.39715    62.85441     3.60876    -1.46240     1.24912
  Fock        0.00000     0.00000     0.00000     0.00000     0.00000     0.00000
  Total      -0.00007    -0.00007    -0.00007     0.00000    -0.00000    -0.00000
  in kB      -0.00263    -0.00263    -0.00263     0.00000    -0.00000    -0.00000

 VOLUME and BASIS-vectors are now :
  energy-cutoff  :      510.00
  volume of cell :       41.72
      direct lattice vectors                 reciprocal lattice vectors
     0.000000000  2.752796234  2.752796234    -0.181633495  0.181633495  0.181633495
     2.752796234  0.000000000  2.752796234     0.181633495 -0.181633495  0.181633495
     2.752796234  2.752796234  0.000000000     0.181633495  0.181633495 -0.181633495

  length of vectors
     3.893041769  3.893041769  3.893041769     0.314598441  0.314598441  0.314598441

 FORCES acting on ions
    electron-ion (+dipol)            ewald-force                    non-local-force                 convergence-correction
   -.304E-06 -.304E-06 -.307E-06   -.843E-15 -.145E-14 0.467E-14   0.128E-15 0.114E-15 0.585E-16   0.115E-09 0.115E-09 0.115E-09
   0.821E-08 0.821E-08 0.837E-08   0.109E-14 0.120E-14 -.449E-14   -.949E-17 -.511E-16 -.267E-16   0.526E-09 0.526E-09 0.526E-09
   -.296E-06 -.296E-06 -.299E-06   0.247E-15 -.252E-15 0.181E-15   0.118E-15 0.626E-16 0.318E-16   0.642E-09 0.642E-09 0.642E-09

 POSITION                                       TOTAL-FORCE (eV/Angst)
      0.00000      0.00000      0.00000         0.000000      0.000000      0.000000
      1.37640      1.37640      1.37640        -0.000000     -0.000000     -0.000000
    total drift:                               -0.000000     -0.000000     -0.000000

  FREE ENERGIE OF THE ION-ELECTRON SYSTEM (eV)
  free  energy   TOTEN  =       -10.37742018 eV

  energy  without entropy=      -10.37742018  energy(sigma->0) =      -10.37742018

 reached required accuracy - stopping structural energy minimisation

 total charge

# of ion       s       p       d       tot
    1        0.394   0.375   0.000   0.769
    2        1.010   1.580   0.000   2.591
tot          1.404   1.955   0.000   3.360